! Created with skrf 1.9.0 (http://scikit-rf.org).
# GHz S DB R 50.0 
!freq dBS11 angS11 dBS12 angS12 dBS13 angS13
! dBS14 angS14
! dBS21 angS21 dBS22 angS22 dBS23 angS23
! dBS24 angS24
! dBS31 angS31 dBS32 angS32 dBS33 angS33
! dBS34 angS34
! dBS41 angS41 dBS42 angS42 dBS43 angS43
! dBS44 angS44
!
1.0 -46.4359051090051 -5.319404652039271 -61.62692321923123 14.336046942511443 -0.041915317130855015 -0.13330658230475434 -62.027018548931224 177.98548583679147
 -61.62692322117123 14.33604695809144 -46.48806115921679 0.6037551792923105 -62.02822655627031 177.98539423205028 -0.04187155690543899 -0.15994672166661258
 -0.0419153171308647 -0.13330658230425432 -62.02822655892892 177.98539424366928 -46.435490918719196 -5.346023164631323 -61.61426762527614 14.727503261169018
 -62.02701855403123 177.9854858401915 -0.04187155690525973 -0.15994672166681256 -61.61426762086852 14.72750324856298 -46.48356529806225 0.5801514090445014
6.0 -44.33199837723272 -34.74173795684303 -56.6645313840324 48.629926484082084 -0.04880083135743689 -0.7041598828759192 -61.2405282236424 169.39412039482207
 -56.664531384102396 48.629926485162095 -46.06842231841099 -5.1042467258244075 -61.27559502094983 169.4096263096614 -0.04866414117150803 -0.8656537543580832
 -0.04880083135744659 -0.7041598828758194 -61.27559502126079 169.40962631027523 -44.32530239727595 -34.64293576868073 -56.584837930098374 50.12957905772016
 -61.240528223302405 169.39412039402208 -0.04866414117150706 -0.865653754358783 -56.58483793010754 50.12957905926848 -45.9065085378155 -4.9554747650815605
11.0 -41.567722585249776 -51.18712027957254 -53.131869447486835 58.967476837561584 -0.053289320878713436 -1.257805003078414 -60.00056369953683 159.41498598559158
 -53.13186944736684 58.96747683730161 -45.58506062316879 -10.522480431307466 -60.096542320358715 159.2752677060072 -0.052984239516279494 -1.5538968320791402
 -0.05328932087870373 -1.2578050030784143 -60.09654232023537 159.2752677076191 -41.54105728107712 -51.15439051886656 -53.03367934182924 61.36733662779226
 -60.000563699686836 159.41498598379158 -0.052984239516279494 -1.5538968320791402 -53.033679341699866 61.3673366274582 -45.099556583232 -10.215674188891299
16.0 -39.03152619545474 -60.59118449604062 -50.615423272574425 63.40011414356784 -0.057570247675000914 -1.8032396590361632 -58.58157504717444 149.63579070477783
 -50.61542327254444 63.400114143617834 -44.975844840727675 -17.21367818013648 -58.74543432323729 149.17564229269948 -0.05699314213852949 -2.2340111935922633
 -0.057570247675000914 -1.8032396590361632 -58.74543432325714 149.17564229310858 -39.001478728281796 -60.63731049727226 -50.5052258015815 66.75241759702065
 -58.58157504719444 149.63579070427784 -0.05699314213851881 -2.2340111935922633 -50.50522580155169 66.7524175969495 -44.098113503203635 -16.122988182590074
21.0 -36.90437939900044 -66.67596109216798 -48.69942562729613 65.72464809314172 -0.061486273704229544 -2.3422262555842774 -57.20171244108613 140.94608838858173
 -48.69942562734613 65.72464809308174 -44.36857671337319 -24.623739310672228 -57.42681539801532 140.04566231056148 -0.060539450270270856 -2.907773380013457
 -0.06148627370421886 -2.3422262555842766 -57.42681539796452 140.04566230973782 -36.87466202324702 -66.7750596790273 -48.57436697233722 70.02265201233541
 -57.20171244114613 140.94608838908175 -0.06053945027026115 -2.907773380013457 -48.57436697237717 70.02265201230749 -43.063035595144015 -21.96693043342053
26.0 -35.12830585363524 -71.01310709897425 -47.14696121687888 67.08878024542796 -0.06497687027180316 -2.8773623571760494 -55.92331120116888 133.59542984921794
 -47.14696121690888 67.08878024553795 -43.782918760745 -32.20374519804797 -56.199727428829895 132.18611446429358 -0.06356255880628181 -3.577793839417666
 -0.06497687027180316 -2.877362357176049 -56.19972742885061 132.18611446367268 -35.099026020843056 -71.14944421176622 -47.007016728282224 72.31074227028981
 -55.92331120118888 133.59542984951796 -0.06356255880628181 -3.577793839417666 -47.007016728302126 72.3107422703109 -42.04960453922796 -27.260665422887254
31.0 -33.62402292489507 -74.3159359442637 -45.834267898641414 67.891923236959 -0.06812321710897752 -3.4104509004880055 -54.75521567716142 127.46271035579902
 -45.8342678986314 67.891923236889 -43.210501115867295 -39.65581633990426 -55.07413643517627 125.5128793356669 -0.06614301006093945 -4.245900306635312
 -0.06812321710897752 -3.4104509004880037 -55.074136435176925 125.51287933608108 -33.59455467591329 -74.4821124463997 -45.68091151053666 74.02146489439376
 -54.755215677191416 127.46271035589902 -0.06614301006092972 -4.245900306635312 -45.6809115105467 74.02146489439463 -41.07567512411144 -31.84236122409928
36.0 -32.32788235302324 -76.95205450945689 -44.6932154172351 68.3139948545304 -0.0710362941556936 -3.9424711582496053 -53.68983946469509 122.32632695822042
 -44.693215417245106 68.31399485455039 -42.64144176282164 -46.8401156668814 -54.04462386534368 119.82582283375223 -0.06839171998587931 -4.913101780854525
 -0.07103629415569263 -3.9424711582496053 -54.04462386534333 119.82582283354255 -32.297584912025044 -77.14515147071624 -44.52821265677911 75.3415084673191
 -53.68983946465511 122.32632695822042 -0.06839171998586958 -4.913101780854524 -44.52821265676903 75.34150846737796 -40.14671024197111 -35.7239409914033
41.0 -31.193240490762268 -79.13230643491951 -43.682661357197254 68.45768095863848 -0.07381029726046247 -4.473897109453514 -52.71557292594726 117.9742423130785
 -43.68266135720725 68.45768095853849 -42.06974319748294 -53.6976357215851 -53.10157220869405 114.92402420431301 -0.07040336459211093 -5.579903041812938
 -0.07381029726046441 -4.473897109453516 -53.10157220865264 114.92402420442026 -31.161604950794256 -79.35160018696627 -43.50758827747106 76.37826723316832
 -52.71557292595726 117.97424231257847 -0.0704033645921012 -5.579903041812938 -43.507588277451475 76.37826723301802 -39.26353413987418 -38.985232912864426
46.0 -30.18635235279637 -80.98730464689554 -42.77550028477116 68.39053527303928 -0.07651437984002253 -5.004940980333727 -51.82081269667116 114.23339620163927
 -42.775500284761165 68.39053527311928 -41.492984693476494 -60.20904524841137 -52.23491860737407 110.63971552820614 -0.07224795503351805 -6.246546918911938
 -0.07651437984003323 -5.004940980333727 -52.23491860743713 110.6397155281955 -30.153004204486216 -81.23308736277207 -42.59162328720738 77.20208157188392
 -51.82081269669116 114.23339620163927 -0.07224795503351805 -6.246546918911938 -42.591623287217416 77.20208157187442 -38.424888098263054 -41.721985860439936
51.0 -29.282545213199906 -82.60252412488022 -41.95263054868473 68.16016931350748 -0.07919665032497158 -5.535689996234525 -50.99516504972472 110.97025454275747
 -41.95263054867473 68.16016931357748 -40.91107145295272 -66.37466884908922 -51.43539070139865 106.8416199045057 -0.07397472646304838 -6.913150760332479
 -0.07919665032497158 -5.535689996234525 -51.435390701462666 106.84161990459756 -29.24721709440632 -82.87550972039679 -41.76092273622966 77.86208533153696
 -50.99516504972472 110.97025454265749 -0.07397472646303768 -6.91315076033248 -41.76092273622976 77.86208533152664 -37.62848729913908 -44.02449207750395
56.0 -28.463449865958022 -84.0362322862052 -41.19992384910369 67.80129490578216 -0.08189006175485494 -6.066174942431849 -50.22967936594369 108.08367663390216
 -41.19992384909369 67.80129490566215 -40.32518855311578 -72.20474741166922 -50.694838545824716 103.42934476535942 -0.07561797314382632 -7.579774982235163
 -0.08189006175484424 -6.066174942431847 -50.69483854580466 103.42934476568136 -28.425953717081185 -84.33725749136148 -41.00111976610219 78.39377251678798
 -50.2296793659537 108.08367663360214 -0.0756179731438156 -7.579774982235163 -41.00111976610252 78.39377251670776 -36.87157004813806 -45.970613586449225
61.0 -27.71511598780375 -85.32944458958083 -40.506563685990415 67.3397336536585 -0.08461727251781401 -6.5964025605075 -49.51675802233041 105.49721425598851
 -40.506563685990415 67.33973365365851 -39.737106872714236 -77.71451815347086 -50.00623550930357 100.3264768736366 -0.07720188364681765 -8.246455496092432
 -0.08461727251782278 -6.5964025605075 -50.00623550932475 100.32647687362773 -27.675320712055175 -85.65931965580872 -40.30121583818041 78.82333917629964
 -49.516758022330414 105.49721425578852 -0.07720188364681765 -8.246455496092432 -40.30121583818064 78.82333917624916 -36.15121628498134 -47.62488659328715
66.0 -27.026742670932133 -86.51180547718614 -39.864056494942076 66.79498790626722 -0.08739408630102619 -7.126370153997777 -48.84997583974208 103.15274860548723
 -39.864056494942076 66.79498790628723 -39.14876706040512 -82.92159652829022 -49.3635664163682 97.47462466944341 -0.07874396827419536 -8.913218334009176
 -0.08739408630102519 -7.126370153997774 -49.36356641635555 97.47462466923722 -26.984557443976932 -86.87124215213308 -39.65258256478257 79.17044808453382
 -48.84997583974208 103.15274860548723 -0.07874396827418563 -8.913218334009176 -39.652582564782556 79.17044808452384 -35.464534780925526 -49.039871192934505
71.0 -26.389816586133247 -87.60522904044225 -39.265601510577476 66.18198690071969 -0.09023174107106359 -7.656071810025304 -48.223892606997474 101.0056720115297
 -39.265601510577476 66.1819869007297 -38.56204867681564 -87.8445101341323 -48.76168841457658 94.82880230122628 -0.08025734094114326 -9.58008587398221
 -0.09023174107107429 -7.656071810025305 -48.76168841457584 94.82880230115242 -26.345178704991334 -87.99480905499948 -39.04832068700684 79.45008303706388
 -48.223892606997474 101.0056720114997 -0.08025734094114326 -9.58008587398221 -39.04832068700688 79.45008303705383 -34.80876879488085 -50.25810103367624
76.0 -25.797517994959463 -88.62623698478646 -38.70566721255135 65.51230604840825 -0.09313839261903797 -8.185500820881742 -47.63388594497134 99.02136004001828
 -38.70566721254134 65.51230604831827 -37.97865400534222 -92.5018452830303 -48.19619702601224 92.35399937561128 -0.08175219787023272 -10.247079253872442
 -0.0931383926190487 -8.18550082088174 -48.19619702600279 92.3539993758624 -25.750384123259757 -89.04640183338468 -38.48282709218096 79.67382667093827
 -47.63388594497133 99.02136003987827 -0.08175219787020253 -10.247079253872442 -38.48282709217117 79.67382667089893 -34.181350494147566 -51.31398362785237
81.0 -25.244304045429963 -89.58750536242272 -38.179694850566804 64.79503176178088 -0.09612006790446245 -8.714650471779148 -47.076010618206816 97.17261780914085
 -38.179694850566804 64.79503176179087 -37.40005967906192 -96.91174071567174 -47.66330813703522 90.02267125573002 -0.08323676708134803 -10.914219144833028
 -0.09612006790446245 -8.714650471779146 -47.66330813703465 90.02267125567722 -25.19464393664859 -90.03855705617735 -37.95149098624174 79.85075591373706
 -47.076010618206816 97.17261780914085 -0.08323676708135776 -10.91421914483303 -37.95149098624176 79.85075591374702 -33.579923676537305 -52.2354353090241
86.0 -24.72561104245422 -90.49891371379921 -37.6838844316786 64.03738184955877 -0.09918127934966685 -9.24351418692123 -46.5468828820586 95.43783294395878
 -37.6838844316886 64.03738184955878 -36.827506707610816 -101.09158944521167 -47.15975792933889 87.81290876898866 -0.0847179193611334 -11.581525878991696
 -0.09918127934967562 -9.24351418692123 -47.15975792932858 87.81290876896723 -24.67340305362726 -90.98102086480408 -37.450474415179585 79.98807761228309
 -46.54688288208859 95.43783294386878 -0.08471791936111295 -11.581525878991696 -37.450474415189696 79.98807761223499 -33.00234741986045 -53.04521310208714
91.0 -24.23763788967075 -91.36827220151066 -37.215036507165756 63.245155054826945 -0.10232542519425455 -9.772085467723059 -46.04358624295575 93.79963322125694
 -37.21503650716575 63.245155054876946 -36.26201102421795 -105.0578709399589 -46.68271946726529 85.70709913198405 -0.08620156561729792 -12.249019366830584
 -0.10232542519425651 -9.772085467723059 -46.6827194672749 85.70709913185154 -24.18286578283331 -91.88147833953802 -36.976550084640735 80.09158499293852
 -46.04358624294576 93.79963322123695 -0.08620156561729792 -12.249019366830582 -36.97655008464078 80.09158499293747 -32.4466887275678 -53.76197183174866
96.0 -23.77718587760157 -92.20183526217933 -36.77043296638982 62.42306003371105 -0.10555505537705283 -10.300357798658956 -45.56359478851982 92.24390335495106
 -36.77043296637982 62.42306003371105 -35.704383959492006 -108.82606730052655 -46.22973365491946 83.69093970030863 -0.08769291998164278 -12.9167189801275
 -0.10555505537705576 -10.30035779865896 -46.22973365491815 83.69093970028389 -23.719836544266478 -92.74606770550139 -36.52697930719892 80.16598919193287
 -45.563594788519815 92.24390335494107 -0.08769291998164278 -12.9167189801275 -36.52697930719897 80.16598919194288 -31.91120925806263 -54.401093339278496
101.0 -23.34153826353868 -93.00467072820128 -36.34774580201448 61.57495855347314 -0.10887205261965696 -10.828324580236863 -45.10471068980448 90.75905799354314
 -36.34774580201448 61.57495855347314 -35.155256534332096 -112.4106343211164 -45.79865219029682 81.75270532937006 -0.08919667825433009 -13.58464346076498
 -0.10887205261966673 -10.828324580236863 -45.798652190296075 81.75270532932679 -23.281600108470684 -93.57974913655077 -36.0994187348373 80.21516280042457
 -45.10471068979448 90.75905799356313 -0.08919667825433984 -13.584643460764982 -36.09941873483728 80.2151628004334 -31.394349295922392 -54.97533443071024
106.0 -22.928368422478222 -93.78092926658857 -35.944966344409366 60.704047161064956 -0.11227775950734081 -11.355979100755055 -44.66501306804937 89.33549862515495
 -35.944966344409366 60.70404716107495 -34.615104178674734 -115.8250084049495 -45.38759038843611 79.88269891723192 -0.09071714241715682 -14.252810866895771
 -0.11227775950734958 -11.35597910075505 -45.38759038843513 79.88269891716767 -22.865830216657663 -94.38657346541316 -35.69184814287442 80.24232083830334
 -44.66501306805937 89.33549862525496 -0.09071714241715682 -14.252810866895771 -35.691848142884226 80.24232083833321 -30.89471088478468 -55.495333582981836
111.0 -22.53566883811815 -94.5340439040895 -35.56034972585991 59.81299434499883 -0.11577307060107934 -11.883314540921177 -44.24281597693991 87.96520357914883
 -35.5603497258599 59.81299434499883 -34.08427009753515 -119.08163653955611 -44.99488807402887 78.07283522577055 -0.09225831018013463 -14.921238550894113
 -0.11577307060108032 -11.883314540921177 -44.99488807402785 78.07283522571612 -22.470518904618174 -95.16988083072975 -35.30251385967936 80.25015678663013
 -44.24281597693991 87.96520357916883 -0.09225831018013463 -14.921238550894113 -35.30251385967933 80.25015678664009 -30.41104125176282 -55.97000861940744
116.0 -22.16169552090761 -95.2668797593161 -35.19237083463696 58.904045227210595 -0.1193585013524511 -12.41032400073941 -43.83663371420696 86.64141528276059
 -35.19237083463696 58.9040452271906 -33.5629864503404 -122.19202058790688 -44.61907706237148 76.316322527682 -0.09382394126680878 -15.589943158701365
 -0.1193585013524501 -12.410324000739406 -44.619077062372334 76.3163225277457 -22.0939211572161 -95.93244952472176 -34.92988398583442 80.24094601798143
 -43.83663371420696 86.64141528281057 -0.09382394126678831 -15.589943158701365 -34.92988398583433 80.24094601800134 -29.94221715296687 -56.406870452069086
121.0 -21.8049240040561 -95.98184780643737 -34.839689039571844 57.97910234991034 -0.123034241132397 -12.937000539509654 -43.445152047731845 85.35839933655035
 -34.83968903958185 57.979102349900344 -33.05139304722163 -125.1667698699972 -44.25885402121626 74.60741675725687 -0.09541760767398441 -16.258940641552815
 -0.1230342411323872 -12.937000539509656 -44.258854021206034 74.6074167572559 -21.734511073834895 -96.67660893686558 -34.57261260569274 80.21662534482822
 -43.445152047731845 85.35839933660036 -0.09541760767399417 -16.25894064155282 -34.572612605692655 80.2166253448481 -29.48723045535505 -56.812272126821014
126.0 -21.46401413974931 -96.68099231570707 -34.501119677885946 57.03978868481751 -0.12680019495823985 -13.463337221972488 -43.067204226575946 84.11125719893754
 -34.501119677885946 57.03978868482752 -32.549553560932644 -128.0156578978433 -43.91305773063827 72.94122994062538 -0.09704273242444475 -16.92824627355104
 -0.12680019495824768 -13.463337221972486 -43.9130577306488 72.94122994058331 -21.390946789039855 -97.40432626269676 -34.229510931991086 80.17885490929001
 -43.067204226565956 84.11125719902753 -0.09704273242444475 -16.92824627355104 -34.229510931980926 80.17885490932976 -29.04517507550189 -57.19160780678381
131.0 -21.13778166348208 -97.36605879906362 -34.175610805237106 56.08749725967823 -0.1306560168638075 -13.989327166711766 -42.70175086825711 82.89577930009824
 -34.175610805237106 56.08749725969824 -32.05746940647593 -130.74768044790648 -43.58064993847367 71.3135796526833 -0.09870261970632588 -17.59787467176798
 -0.1306560168638075 -13.989327166711771 -43.58064993847318 71.31357965264124 -21.062042131991113 -98.11727379918676 -33.89952384660939 80.12906690424809
 -42.70175086824711 82.89577930011824 -0.09870261970631516 -17.59787467176798 -33.899523846609426 80.12906690425656 -28.61523527770831 -57.54947281255636
136.0 -20.825175021030844 -98.03854736222587 -33.86222407680804 55.123430555934156 -0.1346011369139407 -14.514963595105849 -42.34786298741804 81.70832888158415
 -33.86222407680804 55.12343055593415 -31.57509151159303 -133.37111310817724 -43.26069915499787 69.72086972630734 -0.10040047839134683 -18.267839818106136
 -0.13460113691393777 -14.514963595105842 -43.26069915500945 69.72086972631863 -20.746743529137767 -98.81688170151601 -33.58171067493031 80.06850438689001
 -42.34786298741804 81.70832888157415 -0.10040047839124636 -18.26783981810614 -33.58171067493034 80.06850438689008 -28.19667526558783 -57.889793190073846
141.0 -20.52525633083352 -98.69975502584956 -33.56011890312102 54.14863194886774 -0.13863478336712212 -15.040239880902261 -42.00470757515102 80.54574927614775
 -33.56011890312103 54.14863194889774 -31.102330228513942 -135.89356709945264 -42.95236685498155 68.15999488126457 -0.10213944049657553 -18.938155083537858
 -0.13863478336712212 -15.040239880902263 -42.952366854980006 68.1599948811679 -20.444111027409782 -99.50437973241306 -33.27522930373031 79.99825255785437
 -42.00470757516102 80.54574927614775 -0.10213944049657553 -18.938155083537858 -33.27522930374031 79.99825255785437 -27.78882996602649 -58.21593130149158
146.0 -20.237185629070844 -99.35080962749554 -33.268539233634385 53.16401085854307 -0.14275600124228596 -15.565149600556923 -41.67153526712438 79.40528905518308
 -33.268539233634385 53.164010858543065 -30.639063639489628 -138.32204263043278 -42.654895665561 66.62826369131574 -0.10392257597489102 -19.60883325552404
 -0.14275600124228693 -15.565149600556923 -42.654895665561 66.62826369131574 -20.153302585199842 -100.1808305939867 -32.97932295585338 79.91926421681676
 -41.67153526712439 79.40528905515308 -0.10392257597489005 -19.60883325552404 -32.979322955853455 79.91926421680694 -27.391096891403986 -58.53077245703623
151.0 -19.960207746184782 -99.99269722857412 -32.98680247810527 52.170362897080174 -0.14696366837307195 -16.08968658409983 -41.34766975417527 78.28454078075018
 -32.98680247810527 52.17036289706017 -30.185144496114663 -140.66297932932235 -42.367599217454924 65.12333563246449 -0.10575290508292598 -20.27988656829857
 -0.14696366837307098 -16.089686584099827 -42.36759921745658 65.12333563255169 -19.873560977420173 -100.84715676764613 -32.69330909066608 79.83238061626663
 -41.34766975417527 78.28454078072018 -0.10575290508292598 -20.27988656829857 -32.69330909066619 79.83238061626695 -27.002928968371187 -58.83679648781259
156.0 -19.693641311219864 -100.62628444492543 -32.714290188647794 51.168386074377864 -0.15125650980529515 -16.613844964832147 -41.032498684877794 77.18139018829785
 -32.714290188647794 51.168386074377864 -29.74040600906216 -142.92230347491991 -42.08985341821985 63.643169028440035 -0.10763340931868581 -20.95132673352129
 -0.1512565098052971 -16.613844964832147 -42.089853418219 63.643169028406305 -19.604202809195574 -101.50416230708805 -32.41657002326661 79.73834859040637
 -41.0324986848778 77.18139018829785 -0.10763340931858524 -20.95132673352129 -32.41657002326665 79.73834859041649 -26.623828230850542 -59.13613728874951
161.0 -19.436869488796788 -101.25233675369371 -32.450440201373915 50.158693971503034 -0.15563311106791486 -17.137619225676968 -40.725465872703914 76.09397355939304
 -32.450440201373915 50.15869397149304 -29.30466667417683 -145.10547185963173 -41.82108896152787 62.18597759921647 -0.10956704149995382 -21.62316496796677
 -0.1556331110679139 -17.137619225676968 -41.82108896152728 62.18597759920387 -19.34460924451511 -102.15255067647526 -32.148544951450546 79.63783462040003
 -40.72546587271391 76.09397355938304 -0.10956704149995382 -21.62316496796677 -32.14854495145047 79.63783462040192 -26.253340286095195 -59.430632671636474
166.0 -19.189332134032963 -101.87153356944611 -32.19473998569372 49.14182664388696 -0.16009193050602138 -17.661004239733057 -40.42606464893372 75.02064178513695
 -32.19473998569372 49.141826643886944 -28.877734286966025 -147.21751222429523 -41.56078491398935 60.750194012116594 -0.11155673510124607 -22.29541201463544
 -0.1600919305060204 -17.661004239733053 -41.560784913988755 60.75019401209392 -19.094218140446273 -102.79293946031105 -31.88872315220344 79.53143638151198
 -40.42606464894373 75.02064178514695 -0.11155673510124607 -22.29541201463544 -31.8887231522033 79.53143638152376 -25.891049470371232 -59.72186632412905
171.0 -18.95051911230396 -102.48448070778556 -31.946720985365765 48.11825984194498 -0.1646313106130658 -18.183995304195015 -40.13383220545577 73.95993011013498
 -31.946720985365765 48.11825984194499 -28.459409268161192 -149.2630603076809 -41.308463228707836 59.33443930095941 -0.11360541263465405 -22.96807815596907
 -0.1646313106130658 -18.18399530419502 -41.30846322871923 59.33443930094604 -18.852517341314503 -103.4258725731363 -31.63663815937027 79.41969225390503
 -40.13383220545577 73.95993011012499 -0.11360541263465405 -22.96807815596907 -31.63663815937031 79.41969225390518 -25.536574615049616 -60.01120325943177
176.0 -18.719964579692526 -103.09172073193143 -31.705953768219715 47.088412948541674 -0.16924948822361052 -18.70658816779832 -39.84834476928971 72.91053278461168
 -31.705953768209714 47.08841294855169 -28.049487400366907 -151.24639365663626 -41.063684038587176 57.93749727373552 -0.11571599277940471 -23.641173219365555
 -0.1692494882236115 -18.70658816779832 -41.06368403858511 57.937497273716346 -18.61903893541189 -104.0518304484112 -31.391862767529524 79.30308922329726
 -39.84834476928971 72.91053278461168 -0.11571599277940471 -23.64117321936556 -31.391862767529524 79.30308922329726 -25.18956534638383 -60.2998198467652
181.0 -18.497242060094955 -103.69374158775695 -31.4720438348737 46.05265587590165 -0.17394460349329624 -19.228779053588358 -39.569213457153694 71.87128192879167
 -31.472043834873695 46.052655875901635 -27.647762061562602 -153.1714624151398 -40.82604159166216 56.55829314254477 -0.11789139608483726 -24.314706577353036
 -0.17394460349329727 -19.22877905358836 -40.82604159167397 56.55829314254223 -18.393354314463963 -104.67123858095819 -31.15400473026007 79.18206952863021
 -39.5692134571437 71.87128192877164 -0.11789139608483726 -24.314706577353036 -31.154004730250115 79.18206952862037 -24.849698847171823 -60.58872930823738
186.0 -18.281960187352393 -104.29098385657048 -31.2446279697756 45.011315060499065 -0.17871470772110037 -19.750564678600945 -39.2960806783556 70.84112992772907
 -31.2446279697756 45.01131506049906 -27.254026031751554 -155.04191734628412 -40.59516071054457 55.19587566999859 -0.12013454926791836 -24.98868714494108
 -0.17871470772110132 -19.750564678600945 -40.595160710544896 55.19587567001014 -18.175069905129345 -105.28447471734782 -30.92270303981789 79.05703633294604
 -39.296080678345604 70.84112992769907 -0.12013454926791739 -24.988687144941075 -30.92270303981817 79.0570363329345 -24.516677014967364 -60.87880341954595
191.0 -18.073759006708336 -104.88384689019107 -31.023371045218376 43.96467864748489 -0.18355777017527408 -20.2719422723751 -39.02861698153838 69.8191347115349
 -31.023371045218376 43.9646786474749 -26.868072941132976 -156.86113534166142 -40.37069368143844 53.849402191882604 -0.12244838829436355 -25.663123376308043
 -0.18355777017527605 -20.2719422723751 -40.370693681437764 53.84940219186942 -17.96382346576344 -105.89187493332714 -30.69762469311118 78.92835861697418
 -39.02861698153838 69.81913471152488 -0.12244838829436355 -25.663123376308043 -30.69762469311118 78.9283586169642 -24.190223960539296 -61.170791035801734
196.0 -17.872306749992475 -105.47269403563143 -30.807963210644843 42.91300094313118 -0.1884716841341404 -20.792909595068814 -38.76651826811484 68.8044473498112
 -30.807963210644843 42.913000943121176 -26.48969842078083 -158.63224265353793 -40.152317501672655 52.51812596353122 -0.12483586050808763 -26.338023262315247
 -0.18847168413414234 -20.792909595068824 -40.152317501671966 52.5181259635179 -17.759280860516256 -106.49373879037358 -30.478461864935667 78.79637543382678
 -38.76651826811484 68.80444734982119 -0.12483586050808763 -26.338023262315243 -30.478461864945846 78.79637543382461 -23.87008379960104 -61.46533396269622
201.0 -17.677297014494865 -106.0578571128637 -30.59811741379768 41.85650621721822 -0.1934542723432778 -21.313464955811774 -38.509503316247674 67.79630149070825
 -30.598117413797677 41.85650621722823 -26.11870100801913 -160.35813605761223 -39.93973143232363 51.201385379079376 -0.127299926069146 -27.01339432940117
 -0.1934542723432778 -21.313464955811764 -39.93973143233535 51.201385379054166 -17.56113323868757 -107.0903337300833 -30.264929424709663 78.66139962224906
 -38.509503316247674 67.79630149066823 -0.127299926069146 -27.013394329401176 -30.2649294247098 78.66139962223976 -23.55601869852872 -61.76298060493204
206.0 -17.488446287267763 -106.6396402715994 -30.393567210201905 40.795391939925544 -0.19850329206050366 -21.83360723143445 -38.257311574291904 66.79400427846555
 -30.393567210201905 40.79539193993555 -25.754882850749322 -162.04150213321296 -39.73265481525116 49.89859470981453 -0.1298435589159265 -27.68924363994044
 -0.19850329206050663 -21.833607231434456 -39.73265481525044 49.89859470978098 -17.369094559509758 -107.68189883377642 -30.05676274479196 78.52372105118394
 -38.25731157428191 66.79400427845555 -0.1298435589159265 -27.68924363994044 -30.05676274479226 78.52372105118219 -23.247807141684454 -62.06419774674561
211.0 -17.305491766402966 -107.21832332910124 -30.194064824073536 39.729831535454345 -0.20361643980823663 -22.35333588534567 -38.009701191063535 65.79692847410433
 -30.194064824063535 39.729831535454366 -25.398050247267108 -163.6848348250696 -39.53082512174792 48.609236089735624 -0.13246974740228595 -28.36557779379276
 -0.20361643980823763 -22.35333588534567 -39.530825121758284 48.60923608974747 -17.182899412873237 -108.26864805222418 -29.853715758782634 78.38360945496898
 -38.009701191063535 65.79692847408434 -0.13246974740228692 -28.365577793792767 -29.85371575878268 78.38360945495924 -22.945242392741033 -62.36938075492785
216.0 -17.128189438219753 -107.79416466939098 -29.999379428614922 38.65997672780017 -0.20879135592032128 -22.872650986559822 -37.76644725617492 64.80450557020019
 -29.99937942862492 38.65997672780018 -25.04801405127391 -165.29045143758333 -39.33399620534451 47.332852539528716 -0.13518149471439633 -29.042402930867652
 -0.20879135592032128 -22.87265098655982 -39.33399620534605 47.33285253950078 -17.00230109461573 -108.85077299055195 -29.65555923529312 78.24131690970329
 -37.76644725617492 64.80450557020019 -0.13518149471429544 -29.042402930867645 -29.65555923529312 78.24131690970329 -22.648131126564483 -62.67886244222989
221.0 -16.956312375703014 -108.36740377031855 -29.809295618128566 37.585959543871624 -0.214025628937765 -23.391553228628382 -37.527340226348564 63.816219743521614
 -29.80929561811856 37.58595954387162 -24.70458996687173 -166.86050720122904 -39.14193673417309 46.06904186691325 -0.13798181912705962 -29.71972473439031
 -0.214025628937764 -23.391553228628382 -39.14193673417114 46.06904186692953 -16.82706990157786 -109.42844531756838 -29.4620792387262 78.09707999644925
 -37.527340226348564 63.81621974347161 -0.1379818191270606 -29.719724734390322 -29.46207923872634 78.09707999643015 -22.356292210981856 -62.99292078717743
226.0 -16.789649228895136 -108.93826341405412 -29.623612047231003 36.507894028298864 -0.21931679988940062 -23.91004394847115 -37.292184516781 62.83160252069886
 -29.623612047231003 36.50789402829886 -24.367598753238525 -168.39700853771865 -38.9544287817529 44.81745131341197 -0.14087375414401077 -30.397548434674224
 -0.21931679988939964 -23.910043948471156 -38.9544287817529 44.817451313411965 -16.656991617207787 -110.00181885696549 -29.27307575314782 77.95112169129358
 -37.292184516781 62.83160252069886 -0.14087375414401077 -30.397548434674224 -29.27307575314782 77.95112169129358 -22.06955562076171 -63.31178567292061
231.0 -16.62800288215569 -109.50695162611349 -29.442140216673216 35.42587771454448 -0.22466236648511445 -24.42812514507551 -37.06079723837322 61.8502280589845
 -29.442140216673216 35.42587771454449 -24.036866355776624 -169.90182514377355 -38.77126655677741 43.57777284149714 -0.1438603485435469 -31.075878813375613
 -0.22466236648511345 -24.428125145075516 -38.77126655677741 43.57777284149714 -16.491866162728364 -110.57103140687363 -29.088361448746667 77.80365301872627
 -37.06079723837322 61.85022805899449 -0.14386034854354887 -31.075878813375606 -29.088361448746625 77.80365301872594 -21.787761467875548 -63.635644781148095
236.0 -16.471189257033096 -110.07366338261453 -29.264703386951286 34.33999288825974 -0.2300597872392855 -24.945799497990265 -36.83300706356129 60.87170895755974
 -29.264703386951286 34.33999288824973 -23.712223977178443 -171.3767010010621 -38.592255254851196 42.34973897364681 -0.1469446663539441 -31.754720208115177
 -0.2300597872392865 -24.94579949799028 -38.592255254851196 42.349738973656805 -16.331506392843593 -111.1362063272916 -28.90776057347212 77.65487449904043
 -36.83300706356129 60.87170895757973 -0.1469446663539441 -31.754720208115177 -28.90776057348242 77.65487449904808 -21.510759134297874 -63.964648755884724
241.0 -16.31903624252059 -110.63858211777259 -29.09113560442373 33.25030767180974 -0.23550648554272974 -25.46307038577026 -36.60865320573373 59.89569253129975
 -29.09113560442373 33.250307671819755 -23.393508099883043 -172.82326441378467 -38.41721001700351 41.13311910780506 -0.15012978677382335 -32.43407651748254
 -0.23550648554272777 -25.46307038577026 -38.41721001700272 41.13311910777057 -16.175737017779525 -111.69745392753538 -28.73110795469281 77.50497741795618
 -36.60865320573373 59.89569253126975 -0.1501297867737233 -32.43407651748254 -28.731107954692902 77.50497741794692 -21.238406495253418 -64.29891573441341
246.0 -16.171382737181276 -111.20188105957486 -28.92128082615965 32.156876953498085 -0.24099985369744542 -25.97994190438191 -36.38758449865965 58.92185748571809
 -28.92128082615965 32.15687695350808 -23.080560469214504 -174.243037164201 -38.2459549817685 39.92771624418169 -0.15341880405478647 -33.1139512065987
 -0.2409998536975475 -25.979941904381906 -38.245954981768875 39.927716244184175 -16.024393636216043 -112.25487268109072 -28.558248097797755 77.35414494145844
 -36.38758449865965 58.92185748571809 -0.15341880405478647 -33.1139512065987 -28.558248097797758 77.35414494145842 -20.970569222169118 -64.63853532829323
251.0 -16.02807778968384 -111.76372441752314 -28.75499213192378 31.059743179959337 -0.24653725693088072 -26.49641888565068 -36.16965856413378 57.949910942339315
 -28.75499213192378 31.059743179959337 -22.77322804515894 -175.63744286982006 -38.07832241900468 38.733364067221565 -0.1568148273657714 -33.79434731304289
 -0.24653725693088172 -26.496418885650684 -38.07832241900427 38.73336406720919 -15.877321865683818 -112.80855029050853 -28.38903437055646 77.2025530969184
 -36.16965856413378 57.94991094234933 -0.1568148273657714 -33.79434731304289 -28.38903437055646 77.2025530969284 -20.70712015612901 -64.98357212566617
256.0 -15.888979826313195 -112.32426844223608 -28.592131013252356 29.95893702766733 -0.2521160374043572 -27.01250691595266 -35.95474105755236 56.979585768057326
 -28.592131013252356 29.95893702767734 -22.47136292931171 -177.00781461769301 -37.914151935283925 37.54992433320402 -0.16032098065546982 -34.47526745341937
 -0.25211603740435623 -27.012506915952667 -37.914151935283925 37.549924333194 -15.734376558995 -113.35856462229323 -28.223328263145923 77.05037163723438
 -35.95474105755236 56.97958576806733 -0.16032098065546982 -34.47526745341937 -28.223328263145923 77.05037163724437 -20.447938743459684 -65.33406877595849
261.0 -15.753955955456938 -112.88366237383137 -28.432566731035788 28.854477965941058 -0.2577335182351884 -27.528212355068934 -35.74270498236579 56.010638170401066
 -28.432566731035788 28.854477965941065 -22.1748222723793 -178.35540194437408 -37.75328974190565 36.37728452108553 -0.16394040253712716 -35.15671383058145
 -0.25773351823519036 -27.52821235506893 -37.753289741918174 36.377284521067665 -15.59542109658705 -113.90498452733974 -28.060998715389243 76.8977648037703
 -35.742704982365794 56.010638170421075 -0.16394040253712716 -35.156713830581445 -28.060998715389204 76.89776480377985 -20.192910526503894 -65.6900487096225
266.0 -15.622881340526684 -113.44204929460778 -28.276175734060626 27.746374721936895 -0.26338700755012817 -28.043542355493116 -35.533430065520626 55.0428455240169
 -28.276175734060626 27.74637472193689 -21.88346816683426 -179.6813772234313 -37.59558797783577 35.21535570782785 -0.16767624621559588 -35.838688241519385
 -0.26338700755012817 -28.04354235549312 -37.59558797784756 35.21535570778462 -15.460326746231132 -114.44787056169123 -27.901921503640775 76.74489200068184
 -35.533430065520626 55.0428455240169 -0.16767624621559588 -35.838688241519385 -27.901921503640814 76.74489200069232 -19.941926683130024 -66.05151853880865
271.0 -15.495638633841684 -113.99956689769343 -28.122841132156474 26.63462565671436 -0.26907380259137603 -28.558504882235642 -35.32680218700648 54.07600439846434
 -28.122841132156474 26.63462565671436 -21.597167528563375 179.01315848388856 -37.440904080492274 34.064070636185654 -0.1715316794837634 -36.52119208606972
 -0.2690738025914765 -28.55850488223565 -37.440904080492665 34.06407063619853 -15.328972082454477 -114.98727561904735 -27.745978680545797 76.5919083920453
 -35.326802186996474 54.07600439847437 -0.1715316794837624 -36.52119208606972 -27.745978680546234 76.59190839204298 -19.69488360950476 -66.41847017819858
276.0 -15.372117465020294 -114.5563481833494 -27.972452218350178 25.5192190595144 -0.2747911938998732 -29.07310873324559 -35.12271285746018 53.10992876190439
 -27.97245221835017 25.5192190595144 -21.315791970430958 177.72717006311086 -37.28910019863718 32.92338194522822 -0.17550988481555546 -37.20422637645415
 -0.27479119389987217 -29.07310873324559 -37.28910019864995 32.923381945209975 -15.201242459145616 -115.52324548561579 -27.59305806195858 76.43896543149714
 -35.12271285746017 53.1099287619044 -0.17550988481555546 -37.20422637645415 -27.59305806195862 76.43896543150764 -19.451682541416492 -66.79088272069312
281.0 -15.252213978211026 -115.11252209145417 -27.824904035193086 24.400133366795405 -0.28053646960338197 -29.587363560534598 -34.92105873851308 52.14444833708539
 -27.824904035193086 24.400133366795405 -21.039217670591853 176.4596834216613 -37.140042642000346 31.793260537884482 -0.1796140595855371 -37.88779174772633
 -0.28053646960338297 -29.587363560534598 -37.140042641999926 31.79326053787164 -15.077029529527735 -116.0558193257351 -27.443052755775675 76.28621133284062
 -34.92105873850308 52.14444833708541 -0.1796140595855371 -37.88779174772633 -27.44305275577623 76.28621133284936 -19.212229209686807 -67.16872409765092
286.0 -15.135830413406456 -115.66821407915464 -27.68009698108044 23.27733731140004 -0.2863069198350429 -30.101279892159955 -34.72174120101044 51.17940709039005
 -27.680096981080446 23.27733731140005 -20.76732523756938 175.20978096240472 -36.993601362663014 30.673694063388197 -0.1838474164485894 -38.571888469115436
 -0.286306919835042 -30.101279892159962 -36.993601362663014 30.673694063388197 -14.956230808456247 -116.58503010619924 -27.295860727912146 76.13379148866582
 -34.72174120101044 51.17940709038005 -0.1838474164485894 -38.571888469115436 -27.29586072791218 76.13379148866633 -18.976433526207433 -67.55195254995577
291.0 -15.02287472743089 -116.22354665011191 -27.537936452889525 22.150790006380497 -0.2920998413185225 -30.614869155139527 -34.52466591711952 50.214661835090496
 -27.537936452889525 22.150790006380493 -20.499999573915876 173.97659741751474 -36.849649464249154 29.56468549355275 -0.18821318391734118 -39.25651645644577
 -0.2920998413185265 -30.614869155139512 -36.849649464249154 29.564685493552744 -14.838749272590036 -117.11090496546872 -27.15138440141496 75.9818488431935
 -34.52466591711953 50.21466183509051 -0.18821318391734118 -39.25651645644577 -27.15138440141496 75.9818488431935 -18.74420929704995 -67.94051793267413
296.0 -14.913260250989875 -116.77863984114516 -27.398332521758334 21.02044096744173 -0.2979125421523328 -31.128143699298274 -34.32974248228833 49.25008093325173
 -27.39833252175834 21.02044096744173 -20.237129739984056 172.7593160099812 -36.708062734561665 28.466251774481076 -0.19271460717300815 -39.94167528537243
 -0.2979125421523348 -31.12814369929826 -36.70806273457519 28.466251774475644 -14.724492994537417 -117.63346553359092 -27.00953028486596 75.83052422428148
 -34.32974248228833 49.25008093323173 -0.19271460717300815 -39.94167528537243 -27.00953028486603 75.83052422428261 -18.515473959995422 -68.33436287307562
301.0 -14.806905378537774 -117.33361167186223 -27.261199639187236 19.88623007703927 -0.3037423468284332 -31.641116822260724 -34.13688406383724 48.28554308045928
 -27.261199639187232 19.886230077029268 -19.97860881905969 171.55716491064538 -36.56871919827988 27.378422535779094 -0.19735494915396407 -40.62736420566314
 -0.3037423468284312 -31.64111682226072 -36.56871919827945 27.378422535775915 -14.613374807470269 -118.15272820719434 -26.870208626635566 75.67995663834482
 -34.13688406383724 48.28554308045927 -0.19735494915396407 -40.62736420566314 -26.870208626635566 75.67995663834482 -18.290148343791174 -68.73342379982391
306.0 -14.70373328821835 -117.88857856097549 -27.12645637103725 18.7480874924285 -0.30958660152335093 -32.153802795541516 -33.946007073157254 47.3209361597885
 -27.126456371037246 18.748087492425494 -19.724333784916677 170.36941396384125 -36.43149868605404 26.301238839613674 -0.20213749196213487 -41.313582156356894
 -0.30958660152345086 -32.15380279554151 -36.431498686067584 26.30123883960758 -14.50531199717069 -118.66870438361796 -26.733333092051232 75.53028353133767
 -33.946007073157254 47.3209361597885 -0.20213749196213487 -41.313582156356894 -26.733333092051204 75.53028353132704 -18.068156446821707 -69.13763185839922
311.0 -14.603671689360604 -118.44365571347305 -26.99402515728988 17.60593349931062 -0.3154426797019775 -32.66621689178837 -33.75703085869988 46.35615615058164
 -26.99402515728988 17.605933499310623 -19.47420537275744 169.1953716555104 -36.296282416975515 25.234751951687077 -0.2070655386344988 -42.00032778173111
 -0.3154426797020765 -32.666216891788366 -36.29628241697549 25.234751951687265 -14.400226018798675 -119.18140065776339 -26.59882046056024 75.38164101751212
 -33.75703085869988 46.35615615058163 -0.2070655386344988 -42.00032778173111 -26.598820460560283 75.38164101752271 -17.84942523332068 -69.54691372659647
316.0 -14.506652595395337 -118.99895748067021 -26.863832095807197 16.45967831175653 -0.3213079880773018 -33.178375413320474 -33.56987741768721 45.39110607948953
 -26.863832095807197 16.459678311750533 -19.228127954321984 168.03438230184452 -36.162952591243034 24.179022115559874 -0.21214241532572647 -42.68759944810857
 -0.3213079880773029 -33.17837541332047 -36.16295259125666 24.179022115552716 -14.298042235860047 -119.69081898360294 -26.46659034049979 75.23416407739207
 -33.56987741768721 45.391106079489525 -0.21214241532572647 -42.68759944810857 -26.466590340489144 75.23416407739337 -17.633884445221067 -69.96119234186169
321.0 -14.412612120562144 -119.5545976961773 -26.735806748583755 15.309221818439966 -0.327179972965858 -33.69029572191004 -33.384471124203756 44.42569500034997
 -26.735806748583755 15.309221818443959 -18.9860094179206 166.88582343719898 -36.03139199065622 23.134117309982404 -0.21737147395248183 -43.37539526116665
 -0.32717997296585594 -33.69029572191005 -36.03139199065596 23.1341173099703 -14.198689679224435 -120.19695680315364 -26.336564899165722 75.08798672496742
 -33.384471124203756 44.42569500035997 -0.21737147395248183 -43.37539526116665 -26.336564899165698 75.08798672496677 -17.421466428030364 -70.38038755147187
326.0 -14.321490298554561 -120.1106899892875 -26.609881969307008 14.154453274797353 -0.3330561270960058 -34.20199626997765 -33.20073847233701 43.45983699069234
 -26.609881969307004 14.154453274796346 -18.74776105387558 165.74910338380437 -35.90148358427815 22.100111968545573 -0.22275609535262278 -44.06371308396121
 -0.3330561270960058 -34.20199626997765 -35.901483584278104 22.100111968545214 -14.102100824187962 -120.69980714441228 -26.208668606229075 74.94324214446608
 -33.20073847233701 43.45983699069234 -0.22275609535262278 -44.06371308396121 -26.208668606229075 74.94324214446607 -17.212105969318255 -70.80441669500456
331.0 -14.233230921906003 -120.66734807657383 -26.4859937512976 12.995250939721553 -0.33893399692250104 -34.71349663317046 -33.018607832647604 42.493450152399554
 -26.4859937512976 12.995250939721553 -18.513297446209805 164.62365898569445 -35.773110137754564 21.0770856382537 -0.22829969301856867 -44.75255055517743
 -0.33893399692250303 -34.71349663317045 -35.77311013775498 21.077085638267427 -14.008211383681932 -121.19935868931515 -26.08282798851956 74.80006279559824
 -33.018607832647604 42.49345015238956 -0.22829969301856867 -44.75255055517743 -26.082827988519583 74.80006279559895 -17.005740148604197 -71.23319512791677
336.0 -14.147781400976493 -121.22468603340315 -26.36408109535269 11.831481655711194 -0.34481119051129133 -35.22481754452281 -32.83800922109269 41.52645560481721
 -26.36408109535269 11.831481655713196 -18.28253637070987 163.50895349253776 -35.646153824258086 20.06512155404217 -0.23400571746921606 -45.44190510765989
 -0.3448111905112903 -35.224817544522814 -35.64615382425733 20.06512155401528 -13.916960116034598 -121.69559581346878 -25.95897139469605 74.65858048641708
 -32.83800922109269 41.526455604827206 -0.234005717469115 -45.441905107659885 -25.95897139469605 74.65858048642708 -16.802308197373115 -71.66663669406573
341.0 -14.065092641478929 -121.78281854452855 -26.24408589707877 10.663000370684804 -0.3506853860756719 -35.735980930180695 -32.658874079358775 40.55877645879931
 -26.24408589707877 10.6630003706835 -18.055398700255523 162.4044745800599 -35.52049583641822 19.06430510315031 -0.23987766133130264 -46.131773986983056
 -0.3506853860756719 -35.735980930180695 -35.52049583641817 19.064305103149803 -13.828288645643426 -122.18849859781746 -25.837028768019895 74.5189264122506
 -32.658874079358775 40.558776458809305 -0.23987766133130264 -46.131773986983056 -25.837028768019895 74.51892641226061 -16.601751368327914 -72.10465415451912
346.0 -13.985118939854168 -122.3418611347614 -26.125952853823424 9.48964959991624 -0.35655434124762436 -36.247009946772764 -32.48113506606342 39.59033675992723
 -26.125952853823424 9.48964959991624 -17.831808317518288 161.30973249470378 -35.39601599810074 18.07472215369264 -0.2459190652119729 -46.82215426961195
 -0.3565543412475239 -36.24700994677276 -35.39601599810078 18.074722153692466 -13.742141295136959 -122.67804281343841 -25.716931425973364 74.3812311584071
 -32.48113506606342 39.59033675992725 -0.2459190652119729 -46.82215426961195 -25.716931425973335 74.38123115839636 -16.404012812928517 -72.54715957917465
