#   Hz   S  RI   R   50
!
0.000000e+00 1.170863e-03 0.000000e+00 3.481668e-03 0.000000e+00 9.915447e-01 0.000000e+00 2.032378e-03 0.000000e+00 3.313523e-03 0.000000e+00 2.059284e-03 0.000000e+00 1.920150e-03 0.000000e+00 9.924568e-01 0.000000e+00 9.916841e-01 0.000000e+00 1.846250e-03 0.000000e+00 9.209576e-03 0.000000e+00 -3.385202e-03 0.000000e+00 2.017703e-03 0.000000e+00 9.923949e-01 0.000000e+00 -3.552330e-03 0.000000e+00 7.868533e-03 0.000000e+00
3.500000e+09 1.274195e-03 7.265541e-04 3.464987e-03 2.174991e-04 9.914594e-01 -8.448181e-03 2.013745e-03 1.330287e-05 3.298991e-03 2.404958e-04 2.153195e-03 6.884704e-04 1.902679e-03 3.106714e-05 9.923705e-01 -8.503694e-03 9.916031e-01 -8.497999e-03 1.828525e-03 7.671276e-07 9.169744e-03 -9.068707e-04 -3.319949e-03 1.210218e-03 1.998574e-03 -4.876586e-06 9.923102e-01 -8.542628e-03 -3.485135e-03 1.234527e-03 7.848294e-03 -6.128180e-04
7.000000e+09 1.576164e-03 1.399647e-03 3.416516e-03 4.453483e-04 9.912068e-01 -1.687275e-02 1.959267e-03 3.612071e-05 3.256824e-03 4.903912e-04 2.427617e-03 1.328253e-03 1.851611e-03 7.113832e-05 9.921150e-01 -1.698346e-02 9.913629e-01 -1.697471e-02 1.776691e-03 1.053395e-05 9.053528e-03 -1.792182e-03 -3.128415e-03 2.391867e-03 1.942631e-03 -6.252941e-08 9.920592e-01 -1.706218e-02 -3.287909e-03 2.439595e-03 7.789573e-03 -1.212761e-03
1.050000e+10 2.053936e-03 1.971459e-03 3.340723e-03 6.927934e-04 9.907967e-01 -2.525250e-02 1.872983e-03 7.697121e-05 3.191094e-03 7.580797e-04 2.861745e-03 1.875800e-03 1.770772e-03 1.282733e-04 9.917002e-01 -2.541781e-02 9.909725e-01 -2.541102e-02 1.694568e-03 3.735724e-05 8.870256e-03 -2.636680e-03 -2.822628e-03 3.519342e-03 1.853988e-03 2.311763e-05 9.916515e-01 -2.553793e-02 -2.973053e-03 3.588804e-03 7.698045e-03 -1.788361e-03
1.400000e+10 2.673259e-03 2.404269e-03 3.244310e-03 9.671022e-04 9.902436e-01 -3.357049e-02 1.760953e-03 1.425863e-04 3.107904e-03 1.050153e-03 3.424372e-03 2.296765e-03 1.665900e-03 2.088408e-04 9.911408e-01 -3.378959e-02 9.904447e-01 -3.379162e-02 1.587887e-03 8.760533e-05 8.633921e-03 -3.425245e-03 -2.420627e-03 4.572355e-03 1.738814e-03 7.152150e-05 9.911012e-01 -3.395333e-02 -2.559171e-03 4.661233e-03 7.582221e-03 -2.330665e-03
1.750000e+10 3.393096e-03 2.672961e-03 3.135308e-03 1.273075e-03 9.895650e-01 -4.181517e-02 1.630440e-03 2.374693e-04 3.014567e-03 1.370955e-03 4.078111e-03 2.568284e-03 1.543870e-03 3.170996e-04 9.904546e-01 -4.208707e-02 9.897955e-01 -4.210607e-02 1.463514e-03 1.655395e-04 8.361278e-03 -4.147912e-03 -1.944030e-03 5.537249e-03 1.604501e-03 1.497382e-04 9.904256e-01 -4.229706e-02 -2.068554e-03 5.642803e-03 7.452288e-03 -2.833864e-03
2.100000e+10 4.170438e-03 2.765403e-03 3.022131e-03 1.612968e-03 9.887792e-01 -4.998047e-02 1.489056e-03 3.638277e-04 2.918746e-03 1.722512e-03 4.783778e-03 2.679328e-03 1.411891e-03 4.551344e-04 9.896600e-01 -5.030412e-02 9.890411e-01 -5.034883e-02 1.328646e-03 2.732503e-04 8.069884e-03 -4.800025e-03 -1.415500e-03 6.407198e-03 1.458799e-03 2.600196e-04 9.896424e-01 -5.056319e-02 -1.524573e-03 6.526475e-03 7.318919e-03 -3.295383e-03
2.450000e+10 4.964379e-03 2.681083e-03 2.912778e-03 1.986764e-03 9.879037e-01 -5.806529e-02 1.344044e-03 5.218141e-04 2.827726e-03 2.104780e-03 5.504104e-03 2.629452e-03 1.276819e-03 6.230842e-04 9.887749e-01 -5.843962e-02 9.881972e-01 -5.851882e-02 1.190132e-03 4.108855e-04 7.776428e-03 -5.381685e-03 -8.566059e-04 7.181491e-03 1.309080e-03 4.025260e-04 9.887686e-01 -5.875060e-02 -9.494687e-04 7.311518e-03 7.192247e-03 -3.715543e-03
2.800000e+10 5.738952e-03 2.428673e-03 2.814282e-03 2.392646e-03 9.869538e-01 -6.607241e-02 1.201775e-03 7.099574e-04 2.747909e-03 2.516073e-03 6.206323e-03 2.426578e-03 1.144687e-03 8.195506e-04 9.878146e-01 -6.649639e-02 9.872777e-01 -6.661846e-02 1.053995e-03 5.770575e-04 7.495566e-03 -5.896745e-03 -2.863205e-04 7.864247e-03 1.161831e-03 5.757647e-04 9.878193e-01 -6.686199e-02 -3.628067e-04 8.002184e-03 7.081164e-03 -4.096954e-03
3.150000e+10 6.464652e-03 2.023214e-03 2.732406e-03 2.827551e-03 9.859420e-01 -7.400731e-02 1.067478e-03 9.256603e-04 2.684541e-03 2.953574e-03 6.863557e-03 2.084433e-03 1.020446e-03 1.042069e-03 9.867921e-01 -7.447999e-02 9.862938e-01 -7.465261e-02 9.251807e-04 7.693140e-04 7.239305e-03 -6.351665e-03 2.797712e-04 8.462940e-03 1.022376e-03 7.770965e-04 9.868067e-01 -7.490270e-02 2.193422e-04 8.606180e-03 6.992940e-03 -4.443811e-03
3.500000e+10 7.118822e-03 1.483458e-03 2.671572e-03 3.287689e-03 9.848783e-01 -8.187707e-02 9.451760e-04 1.165669e-03 2.641646e-03 3.413801e-03 7.455168e-03 1.620124e-03 9.079043e-04 1.287552e-03 9.857171e-01 -8.239759e-02 9.852544e-01 -8.262752e-02 8.074924e-04 9.845816e-04 7.016840e-03 -6.754420e-03 8.296801e-04 8.986994e-03 8.948087e-04 1.003214e-03 9.857404e-01 -8.287961e-02 7.846147e-04 9.133227e-03 6.933125e-03 -4.761232e-03
3.850000e+10 7.685255e-03 8.296846e-04 2.634936e-03 3.768972e-03 9.837694e-01 -8.968941e-02 8.377513e-04 1.426458e-03 2.622093e-03 3.893000e-03 7.966393e-03 1.052149e-03 8.097905e-04 1.552658e-03 9.845968e-01 -9.025701e-02 9.841656e-01 -9.055005e-02 7.036561e-04 1.219531e-03 6.834721e-03 -7.113609e-03 1.354801e-03 9.446642e-03 7.820656e-04 1.250534e-03 9.846271e-01 -9.080023e-02 1.324137e-03 9.593879e-03 6.905652e-03 -5.054715e-03
4.200000e+10 8.153331e-03 8.209098e-05 2.624559e-03 4.267327e-03 9.826201e-01 -9.745202e-02 7.471006e-04 1.704518e-03 2.627755e-03 4.387433e-03 8.387564e-03 3.989333e-04 7.278996e-04 1.834056e-03 9.834357e-01 -9.806606e-02 9.830316e-01 -9.842701e-02 6.154656e-04 1.470848e-03 6.697202e-03 -7.437796e-03 1.849462e-03 9.852071e-03 6.860774e-04 1.515488e-03 9.834714e-01 -9.867204e-02 1.832061e-03 9.998644e-03 6.913048e-03 -5.329733e-03
4.550000e+10 8.516987e-03 -7.402622e-04 2.641608e-03 4.778904e-03 9.814330e-01 -1.051721e-01 6.743171e-04 1.996539e-03 2.659686e-03 4.893565e-03 8.713162e-03 -3.221358e-04 6.632659e-04 2.128609e-03 9.822367e-01 -1.058320e-01 9.818549e-01 -1.062648e-01 5.439549e-04 1.735405e-03 6.606665e-03 -7.735077e-03 2.310378e-03 1.021287e-02 6.079579e-04 1.794712e-03 9.822758e-01 -1.065021e-01 2.305000e-03 1.035742e-02 6.956694e-03 -5.591475e-03
4.900000e+10 8.773677e-03 -1.620053e-03 2.686558e-03 5.300195e-03 9.802094e-01 -1.128561e-01 6.198740e-04 2.299518e-03 2.718314e-03 5.408170e-03 8.940874e-03 -1.095254e-03 6.163363e-04 2.433466e-03 9.810010e-01 -1.135615e-01 9.806365e-01 -1.140692e-01 4.895721e-04 2.010367e-03 6.564045e-03 -8.012834e-03 2.736108e-03 1.053773e-02 5.481894e-04 2.085154e-03 9.810417e-01 -1.142966e-01 2.741466e-03 1.067915e-02 7.037082e-03 -5.844693e-03
5.250000e+10 8.923444e-03 -2.541959e-03 2.759377e-03 5.828083e-03 9.789493e-01 -1.205098e-01 5.837879e-04 2.610805e-03 2.803601e-03 5.928382e-03 9.070749e-03 -1.906441e-03 5.871257e-04 2.746114e-03 9.797287e-01 -1.212601e-01 9.793766e-01 -1.218450e-01 4.523335e-04 2.293232e-03 6.569208e-03 -8.277630e-03 3.126565e-03 1.083427e-02 5.067899e-04 2.384121e-03 9.797691e-01 -1.220610e-01 3.141371e-03 1.097171e-02 7.154049e-03 -6.093637e-03
5.600000e+10 8.968150e-03 -3.492694e-03 2.859674e-03 6.359851e-03 9.776521e-01 -1.281377e-01 5.657562e-04 2.928110e-03 2.915183e-03 6.451697e-03 9.104491e-03 -2.743569e-03 5.753461e-04 3.064378e-03 9.784191e-01 -1.289328e-01 9.780746e-01 -1.295966e-01 4.319537e-04 2.581838e-03 6.621271e-03 -8.535193e-03 3.482610e-03 1.110906e-02 4.834520e-04 2.689286e-03 9.784573e-01 -1.298001e-01 3.505602e-03 1.124186e-02 7.306967e-03 -6.342047e-03
5.950000e+10 8.910862e-03 -4.460900e-03 2.986820e-03 6.893158e-03 9.763168e-01 -1.357439e-01 5.652649e-04 3.249483e-03 3.052479e-03 6.975954e-03 9.044902e-03 -3.596269e-03 5.805099e-04 3.386406e-03 9.770712e-01 -1.365834e-01 9.767295e-01 -1.373274e-01 4.279475e-04 2.874343e-03 6.718846e-03 -8.790456e-03 3.805730e-03 1.136763e-02 4.776537e-04 2.998669e-03 9.771054e-01 -1.375176e-01 3.835694e-03 1.149534e-02 7.494895e-03 -6.593178e-03
6.300000e+10 8.755382e-03 -5.436965e-03 3.140042e-03 7.426007e-03 9.749418e-01 -1.433317e-01 5.816715e-04 3.573281e-03 3.214775e-03 7.499307e-03 8.895458e-03 -4.455764e-03 6.020071e-04 3.710639e-03 9.756833e-01 -1.442154e-01 9.753400e-01 -1.450402e-01 4.397082e-04 3.169199e-03 6.860237e-03 -9.047638e-03 4.097792e-03 1.161463e-02 4.887419e-04 3.310604e-03 9.757118e-01 -1.452166e-01 4.133573e-03 1.173691e-02 7.716699e-03 -6.849846e-03
6.650000e+10 8.505913e-03 -6.412812e-03 3.318485e-03 7.956701e-03 9.735255e-01 -1.509034e-01 6.142645e-04 3.898133e-03 3.401282e-03 8.020183e-03 8.659997e-03 -5.314673e-03 6.391630e-04 4.035772e-03 9.742540e-01 -1.518312e-01 9.739047e-01 -1.527372e-01 4.665640e-04 3.465113e-03 7.043578e-03 -9.310326e-03 4.360866e-03 1.185388e-02 5.159937e-04 3.623698e-03 9.742750e-01 -1.528997e-01 4.401371e-03 1.197053e-02 7.971135e-03 -7.114481e-03
7.000000e+10 8.166812e-03 -7.381680e-03 3.521262e-03 8.483803e-03 9.720663e-01 -1.584613e-01 6.623072e-04 4.222900e-03 3.611182e-03 8.537244e-03 8.342500e-03 -6.166816e-03 6.912783e-04 4.360721e-03 9.727815e-01 -1.594328e-01 9.724221e-01 -1.604201e-01 5.078191e-04 3.761011e-03 7.266930e-03 -9.581565e-03 4.597094e-03 1.208851e-02 5.586600e-04 3.936797e-03 9.727933e-01 -1.605686e-01 4.641299e-03 1.219942e-02 8.256910e-03 -7.389181e-03
7.350000e+10 7.742428e-03 -8.337917e-03 3.747488e-03 9.006092e-03 9.705626e-01 -1.660067e-01 7.250656e-04 4.546637e-03 3.843659e-03 9.049351e-03 7.946940e-03 -7.007025e-03 7.576566e-04 4.684587e-03 9.712641e-01 -1.670220e-01 9.708907e-01 -1.680902e-01 5.627807e-04 4.056002e-03 7.528350e-03 -9.863943e-03 4.808607e-03 1.232108e-02 6.159952e-04 4.248944e-03 9.712653e-01 -1.682250e-01 4.855554e-03 1.242624e-02 8.572719e-03 -7.675761e-03
7.700000e+10 7.236994e-03 -9.276803e-03 3.996296e-03 9.522530e-03 9.690126e-01 -1.735408e-01 8.018282e-04 4.868564e-03 4.097911e-03 9.555531e-03 7.477185e-03 -7.830977e-03 8.376225e-04 5.006625e-03 9.697003e-01 -1.745997e-01 9.693091e-01 -1.757484e-01 6.307768e-04 4.349353e-03 7.825933e-03 -1.015966e-02 4.997466e-03 1.255367e-02 6.872762e-04 4.559351e-03 9.696892e-01 -1.758699e-01 5.046263e-03 1.265311e-02 8.917280e-03 -7.975801e-03
8.050000e+10 6.654561e-03 -1.019438e-02 4.266856e-03 1.003223e-02 9.674151e-01 -1.810646e-01 8.919170e-04 5.188035e-03 4.373169e-03 1.005495e-02 6.936941e-03 -8.635050e-03 9.305323e-04 5.326219e-03 9.680885e-01 -1.821669e-01 9.676760e-01 -1.833955e-01 7.111675e-04 4.640456e-03 8.157842e-03 -1.047061e-02 5.165630e-03 1.278793e-02 7.718142e-04 4.867363e-03 9.680637e-01 -1.835041e-01 5.215445e-03 1.288176e-02 9.289343e-03 -8.290686e-03
8.400000e+10 5.998965e-03 -1.108732e-02 4.558375e-03 1.053443e-02 9.657684e-01 -1.885784e-01 9.946940e-04 5.504515e-03 4.668700e-03 1.054688e-02 6.329713e-03 -9.416194e-03 1.035780e-03 5.642856e-03 9.664273e-01 -1.897241e-01 9.659901e-01 -1.910319e-01 8.033507e-04 4.928807e-03 8.522320e-03 -1.079842e-02 5.314938e-03 1.302522e-02 8.689613e-04 5.172440e-03 9.663874e-01 -1.911281e-01 5.364997e-03 1.311357e-02 9.687700e-03 -8.621636e-03
8.750000e+10 5.273809e-03 -1.195282e-02 4.870108e-03 1.102846e-02 9.640714e-01 -1.960827e-01 1.109564e-03 5.817558e-03 4.983810e-03 1.103071e-02 5.658798e-03 -1.017183e-02 1.152801e-03 5.956110e-03 9.647153e-01 -1.972717e-01 9.642503e-01 -1.986577e-01 9.067647e-04 5.213990e-03 8.917696e-03 -1.114449e-02 5.447096e-03 1.326659e-02 9.781130e-04 5.474134e-03 9.646590e-01 -1.987422e-01 5.496679e-03 1.334966e-02 1.011119e-02 -8.969741e-03
9.100000e+10 4.482464e-03 -1.278848e-02 5.201350e-03 1.151375e-02 9.623229e-01 -2.035777e-01 1.235974e-03 6.126792e-03 5.317846e-03 1.150586e-02 4.927282e-03 -1.089975e-02 1.281069e-03 6.265622e-03 9.629515e-01 -2.048099e-01 9.624556e-01 -2.062731e-01 1.020888e-03 5.495655e-03 9.342389e-03 -1.151005e-02 5.563684e-03 1.351292e-02 1.098708e-03 5.772069e-03 9.628774e-01 -2.063466e-01 5.612120e-03 1.359090e-02 1.055871e-02 -9.335979e-03
9.450000e+10 3.628074e-03 -1.359224e-02 5.551441e-03 1.198978e-02 9.605217e-01 -2.110633e-01 1.373414e-03 6.431902e-03 5.670191e-03 1.197185e-02 4.138042e-03 -1.159807e-02 1.420100e-03 6.571090e-03 9.611346e-01 -2.123386e-01 9.606049e-01 -2.138780e-01 1.145240e-03 5.773508e-03 9.794901e-03 -1.189621e-02 5.666151e-03 1.376488e-02 1.230229e-03 6.065932e-03 9.610414e-01 -2.139413e-01 5.712815e-03 1.383800e-02 1.102919e-02 -9.721239e-03
9.800000e+10 2.713568e-03 -1.436233e-02 5.919760e-03 1.245610e-02 9.586669e-01 -2.185395e-01 1.521413e-03 6.732624e-03 6.040267e-03 1.242824e-02 3.293763e-03 -1.226516e-02 1.569443e-03 6.872257e-03 9.592637e-01 -2.198578e-01 9.586974e-01 -2.214723e-01 1.279375e-03 6.047302e-03 1.027382e-02 -1.230394e-02 5.755829e-03 1.402301e-02 1.372197e-03 6.355457e-03 9.591502e-01 -2.215261e-01 5.800138e-03 1.409152e-02 1.152161e-02 -1.012633e-02
1.015000e+11 1.741678e-03 -1.509719e-02 6.305725e-03 1.291229e-02 9.567576e-01 -2.260061e-01 1.679534e-03 7.028729e-03 6.427525e-03 1.287462e-02 2.396950e-03 -1.289957e-02 1.728687e-03 7.168904e-03 9.573379e-01 -2.273673e-01 9.567324e-01 -2.290556e-01 1.422883e-03 6.316825e-03 1.077779e-02 -1.273411e-02 5.833939e-03 1.428774e-02 1.524172e-03 6.640415e-03 9.572029e-01 -2.291010e-01 5.875348e-03 1.435191e-02 1.203499e-02 -1.055201e-02
1.050000e+11 7.149569e-04 -1.579544e-02 6.708785e-03 1.335797e-02 9.547930e-01 -2.334630e-01 1.847378e-03 7.320021e-03 6.831451e-03 1.331062e-02 1.449943e-03 -1.350003e-02 1.897448e-03 7.460838e-03 9.553563e-01 -2.348670e-01 9.547090e-01 -2.366278e-01 1.575387e-03 6.581893e-03 1.130554e-02 -1.318752e-02 5.901597e-03 1.455940e-02 1.685746e-03 6.920612e-03 9.551987e-01 -2.366655e-01 5.939597e-03 1.461950e-02 1.256838e-02 -1.099898e-02
1.085000e+11 -3.642092e-04 -1.645586e-02 7.128421e-03 1.379279e-02 9.527723e-01 -2.409097e-01 2.024573e-03 7.606327e-03 7.251556e-03 1.373591e-02 4.549336e-04 -1.406542e-02 2.075373e-03 7.747891e-03 9.533183e-01 -2.423564e-01 9.526267e-01 -2.441885e-01 1.736537e-03 6.842347e-03 1.185586e-02 -1.366491e-02 5.959829e-03 1.483826e-02 1.856544e-03 7.195877e-03 9.531368e-01 -2.442195e-01 5.993941e-03 1.489458e-02 1.312086e-02 -1.146789e-02
1.120000e+11 -1.493580e-03 -1.707733e-02 7.564142e-03 1.421643e-02 9.506949e-01 -2.483459e-01 2.210777e-03 7.887495e-03 7.687375e-03 1.415015e-02 -5.860199e-04 -1.459469e-02 2.262135e-03 8.029914e-03 9.512230e-01 -2.498352e-01 9.504849e-01 -2.517373e-01 1.906011e-03 7.098045e-03 1.242757e-02 -1.416696e-02 6.009572e-03 1.512452e-02 2.036218e-03 7.466058e-03 9.510166e-01 -2.517625e-01 6.039351e-03 1.517736e-02 1.369155e-02 -1.195937e-02
1.155000e+11 -2.671046e-03 -1.765883e-02 8.015480e-03 1.462859e-02 9.485602e-01 -2.557713e-01 2.405669e-03 8.163389e-03 8.138464e-03 1.455306e-02 -1.670979e-03 -1.508691e-02 2.457430e-03 8.306772e-03 9.490701e-01 -2.573031e-01 9.482831e-01 -2.592737e-01 2.083508e-03 7.348863e-03 1.301957e-02 -1.469430e-02 6.051692e-03 1.541834e-02 2.224447e-03 7.731022e-03 9.488376e-01 -2.592942e-01 6.076716e-03 1.546800e-02 1.427958e-02 -1.247400e-02
1.190000e+11 -3.894614e-03 -1.819944e-02 8.481987e-03 1.502897e-02 9.463676e-01 -2.631855e-01 2.608955e-03 8.433883e-03 8.604401e-03 1.494433e-02 -2.798109e-03 -1.554120e-02 2.660974e-03 8.578343e-03 9.468588e-01 -2.647596e-01 9.460208e-01 -2.667973e-01 2.268750e-03 7.594684e-03 1.363077e-02 -1.524754e-02 6.086983e-03 1.571984e-02 2.420931e-03 7.990646e-03 9.465992e-01 -2.668141e-01 6.106858e-03 1.576663e-02 1.488410e-02 -1.301235e-02
1.225000e+11 -5.162394e-03 -1.869827e-02 8.963237e-03 1.541730e-02 9.441167e-01 -2.705880e-01 2.820357e-03 8.698864e-03 9.084776e-03 1.532370e-02 -3.965670e-03 -1.595675e-02 2.872503e-03 8.844514e-03 9.445886e-01 -2.722044e-01 9.436975e-01 -2.743077e-01 2.461476e-03 7.835405e-03 1.426013e-02 -1.582723e-02 6.116179e-03 1.602911e-02 2.625389e-03 8.244818e-03 9.443009e-01 -2.743217e-01 6.130535e-03 1.607334e-02 1.550429e-02 -1.357496e-02
1.260000e+11 -6.472587e-03 -1.915450e-02 9.458816e-03 1.579332e-02 9.418070e-01 -2.779783e-01 3.039615e-03 8.958226e-03 9.579196e-03 1.569090e-02 -5.172005e-03 -1.633281e-02 3.091769e-03 9.105179e-03 9.422593e-01 -2.796368e-01 9.413130e-01 -2.818044e-01 2.661442e-03 8.070928e-03 1.490665e-02 -1.643392e-02 6.139962e-03 1.634622e-02 2.837559e-03 8.493436e-03 9.419423e-01 -2.818167e-01 6.148447e-03 1.638822e-02 1.613933e-02 -1.416235e-02
1.295000e+11 -7.823470e-03 -1.956736e-02 9.968328e-03 1.615676e-02 9.394381e-01 -2.853560e-01 3.266485e-03 9.211869e-03 1.008728e-02 1.604568e-02 -6.415524e-03 -1.666865e-02 3.318536e-03 9.360239e-03 9.398702e-01 -2.870566e-01 9.388668e-01 -2.892869e-01 2.868420e-03 8.301162e-03 1.556932e-02 -1.706813e-02 6.158962e-03 1.667122e-02 3.057196e-03 8.736401e-03 9.395230e-01 -2.892985e-01 6.161248e-03 1.671130e-02 1.678841e-02 -1.477501e-02
1.330000e+11 -9.213393e-03 -1.993610e-02 1.049138e-02 1.650738e-02 9.370096e-01 -2.927207e-01 3.500737e-03 9.459698e-03 1.060865e-02 1.638778e-02 -7.694704e-03 -1.696358e-02 3.552585e-03 9.609600e-03 9.374210e-01 -2.944631e-01 9.363586e-01 -2.967546e-01 3.082193e-03 8.526021e-03 1.624719e-02 -1.773034e-02 6.173768e-03 1.700414e-02 3.284067e-03 8.973622e-03 9.370427e-01 -2.967667e-01 6.169544e-03 1.704263e-02 1.745074e-02 -1.541344e-02
1.365000e+11 -1.064076e-02 -2.026002e-02 1.102761e-02 1.684494e-02 9.345212e-01 -3.000718e-01 3.742153e-03 9.701622e-03 1.114296e-02 1.671697e-02 -9.008074e-03 -1.721694e-02 3.793706e-03 9.853170e-03 9.349115e-01 -3.018559e-01 9.337882e-01 -3.042071e-01 3.302556e-03 8.745420e-03 1.693931e-02 -1.842103e-02 6.184932e-03 1.734502e-02 3.517951e-03 9.205011e-03 9.345010e-01 -3.042207e-01 6.173904e-03 1.738224e-02 1.812552e-02 -1.607809e-02
1.400000e+11 -1.210404e-02 -2.053844e-02 1.157664e-02 1.716921e-02 9.319726e-01 -3.074088e-01 3.990523e-03 9.937555e-03 1.168984e-02 1.703300e-02 -1.035421e-02 -1.742809e-02 4.041698e-03 1.009086e-02 9.323413e-01 -3.092346e-01 9.311553e-01 -3.116438e-01 3.529314e-03 8.959282e-03 1.764475e-02 -1.914066e-02 6.192968e-03 1.769385e-02 3.758639e-03 9.430483e-03 9.318975e-01 -3.116601e-01 6.174861e-03 1.773014e-02 1.881197e-02 -1.676943e-02
1.435000e+11 -1.360173e-02 -2.077069e-02 1.213811e-02 1.747995e-02 9.293634e-01 -3.147313e-01 4.245649e-03 1.016741e-02 1.224895e-02 1.733566e-02 -1.173173e-02 -1.759643e-02 4.296370e-03 1.032259e-02 9.297100e-01 -3.165985e-01 9.284596e-01 -3.190643e-01 3.762281e-03 9.167528e-03 1.836259e-02 -1.988966e-02 6.198364e-03 1.805065e-02 4.005932e-03 9.649956e-03 9.292321e-01 -3.190843e-01 6.172917e-03 1.808634e-02 1.950930e-02 -1.748788e-02
1.470000e+11 -1.513237e-02 -2.095614e-02 1.271166e-02 1.777694e-02 9.266935e-01 -3.220388e-01 4.507340e-03 1.039111e-02 1.281994e-02 1.762470e-02 -1.313928e-02 -1.772135e-02 4.557539e-03 1.054828e-02 9.270174e-01 -3.239472e-01 9.257009e-01 -3.264679e-01 4.001279e-03 9.370084e-03 1.909192e-02 -2.066847e-02 6.201580e-03 1.841542e-02 4.259637e-03 9.863350e-03 9.265044e-01 -3.264928e-01 6.168548e-03 1.845085e-02 2.021673e-02 -1.823388e-02
1.505000e+11 -1.669455e-02 -2.109416e-02 1.329696e-02 1.805997e-02 9.239625e-01 -3.293307e-01 4.775413e-03 1.060856e-02 1.340247e-02 1.789992e-02 -1.457555e-02 -1.780228e-02 4.825027e-03 1.076783e-02 9.242633e-01 -3.312803e-01 9.228791e-01 -3.338542e-01 4.246134e-03 9.566875e-03 1.983183e-02 -2.147748e-02 6.203052e-03 1.878815e-02 4.519569e-03 1.007059e-02 9.237143e-01 -3.338851e-01 6.162203e-03 1.882366e-02 2.093349e-02 -1.900782e-02
1.540000e+11 -1.828685e-02 -2.118415e-02 1.389365e-02 1.832881e-02 9.211703e-01 -3.366066e-01 5.049689e-03 1.081970e-02 1.399621e-02 1.816110e-02 -1.603924e-02 -1.783866e-02 5.098663e-03 1.098118e-02 9.214475e-01 -3.385971e-01 9.199939e-01 -3.412226e-01 4.496682e-03 9.757830e-03 2.058143e-02 -2.231710e-02 6.203196e-03 1.916884e-02 4.785551e-03 1.027159e-02 9.208615e-01 -3.412607e-01 6.154311e-03 1.920477e-02 2.165877e-02 -1.981012e-02
1.575000e+11 -1.990792e-02 -2.122554e-02 1.450139e-02 1.858325e-02 9.183166e-01 -3.438659e-01 5.329997e-03 1.102444e-02 1.460082e-02 1.840802e-02 -1.752907e-02 -1.782995e-02 5.378281e-03 1.118825e-02 9.185696e-01 -3.458971e-01 9.170452e-01 -3.485727e-01 4.752761e-03 9.942877e-03 2.133982e-02 -2.318770e-02 6.202407e-03 1.955748e-02 5.057410e-03 1.046629e-02 9.179458e-01 -3.486191e-01 6.145282e-03 1.959416e-02 2.239181e-02 -2.064114e-02
1.610000e+11 -2.155640e-02 -2.121773e-02 1.511984e-02 1.882310e-02 9.154012e-01 -3.511081e-01 5.616168e-03 1.122270e-02 1.521598e-02 1.864047e-02 -1.904380e-02 -1.777561e-02 5.663718e-03 1.138895e-02 9.156296e-01 -3.531799e-01 9.140328e-01 -3.559037e-01 5.014216e-03 1.012195e-02 2.210611e-02 -2.408966e-02 6.201066e-03 1.995405e-02 5.334978e-03 1.065460e-02 9.149669e-01 -3.559597e-01 6.135510e-03 1.999183e-02 2.313180e-02 -2.150126e-02
1.645000e+11 -2.323095e-02 -2.116019e-02 1.574866e-02 1.904813e-02 9.124240e-01 -3.583328e-01 5.908040e-03 1.141441e-02 1.584134e-02 1.885824e-02 -2.058217e-02 -1.767512e-02 5.954816e-03 1.158321e-02 9.126272e-01 -3.604449e-01 9.109566e-01 -3.632153e-01 5.280892e-03 1.029497e-02 2.287942e-02 -2.502333e-02 6.199539e-03 2.035854e-02 5.618091e-03 1.083645e-02 9.119248e-01 -3.632820e-01 6.125371e-03 2.039776e-02 2.387796e-02 -2.239084e-02
1.680000e+11 -2.493024e-02 -2.105236e-02 1.638752e-02 1.925816e-02 9.093847e-01 -3.655393e-01 6.205451e-03 1.159949e-02 1.647658e-02 1.906115e-02 -2.214296e-02 -1.752800e-02 6.251420e-03 1.177095e-02 9.095622e-01 -3.676916e-01 9.078164e-01 -3.705069e-01 5.552642e-03 1.046187e-02 2.365884e-02 -2.598905e-02 6.198179e-03 2.077092e-02 5.906588e-03 1.101177e-02 9.088192e-01 -3.705855e-01 6.115229e-03 2.081194e-02 2.462949e-02 -2.331022e-02
1.715000e+11 -2.665296e-02 -2.089372e-02 1.703608e-02 1.945299e-02 9.062832e-01 -3.727272e-01 6.508245e-03 1.177787e-02 1.712136e-02 1.924899e-02 -2.372495e-02 -1.733373e-02 6.553377e-03 1.195210e-02 9.064345e-01 -3.749195e-01 9.046121e-01 -3.777779e-01 5.829317e-03 1.062259e-02 2.444350e-02 -2.698713e-02 6.197327e-03 2.119118e-02 6.200313e-03 1.118050e-02 9.056500e-01 -3.778696e-01 6.105439e-03 2.123434e-02 2.538559e-02 -2.425972e-02
1.750000e+11 -2.839782e-02 -2.068377e-02 1.769399e-02 1.963242e-02 9.031193e-01 -3.798959e-01 6.816266e-03 1.194948e-02 1.777536e-02 1.942156e-02 -2.532693e-02 -1.709186e-02 6.860538e-03 1.212659e-02 9.032439e-01 -3.821280e-01 9.013435e-01 -3.850278e-01 6.110774e-03 1.077707e-02 2.523249e-02 -2.801790e-02 6.197314e-03 2.161930e-02 6.499111e-03 1.134254e-02 9.024170e-01 -3.851338e-01 6.096341e-03 2.166494e-02 2.614546e-02 -2.523967e-02
1.785000e+11 -3.016349e-02 -2.042199e-02 1.836094e-02 1.979627e-02 8.998928e-01 -3.870450e-01 7.129361e-03 1.211423e-02 1.843825e-02 1.957868e-02 -2.694768e-02 -1.680192e-02 7.172753e-03 1.229433e-02 8.999903e-01 -3.893167e-01 8.980106e-01 -3.922560e-01 6.396871e-03 1.092522e-02 2.602491e-02 -2.908165e-02 6.198462e-03 2.205524e-02 6.802828e-03 1.149785e-02 8.991201e-01 -3.923776e-01 6.088269e-03 2.210373e-02 2.690827e-02 -2.625035e-02
1.820000e+11 -3.194870e-02 -2.010792e-02 1.903657e-02 1.994436e-02 8.966037e-01 -3.941739e-01 7.447380e-03 1.227207e-02 1.910969e-02 1.972017e-02 -2.858600e-02 -1.646347e-02 7.489876e-03 1.245527e-02 8.966734e-01 -3.964849e-01 8.946133e-01 -3.994620e-01 6.687466e-03 1.106699e-02 2.681988e-02 -3.017867e-02 6.201085e-03 2.249899e-02 7.111315e-03 1.164634e-02 8.957590e-01 -3.996004e-01 6.081548e-03 2.255067e-02 2.767322e-02 -2.729206e-02
1.855000e+11 -3.375215e-02 -1.974108e-02 1.972055e-02 2.007649e-02 8.932518e-01 -4.012820e-01 7.770173e-03 1.242291e-02 1.978935e-02 1.984583e-02 -3.024068e-02 -1.607607e-02 7.811761e-03 1.260932e-02 8.932932e-01 -4.036321e-01 8.911514e-01 -4.066452e-01 6.982422e-03 1.120231e-02 2.761649e-02 -3.130921e-02 6.205491e-03 2.295052e-02 7.424423e-03 1.178796e-02 8.923338e-01 -4.068017e-01 6.076495e-03 2.300574e-02 2.843948e-02 -2.836506e-02
1.890000e+11 -3.557255e-02 -1.932103e-02 2.041255e-02 2.019251e-02 8.898368e-01 -4.083689e-01 8.097590e-03 1.256669e-02 2.047689e-02 1.995550e-02 -3.191053e-02 -1.563931e-02 8.138265e-03 1.275642e-02 8.898494e-01 -4.107578e-01 8.876248e-01 -4.138051e-01 7.281599e-03 1.133113e-02 2.841383e-02 -3.247353e-02 6.211980e-03 2.340978e-02 7.742002e-03 1.192262e-02 8.888442e-01 -4.139808e-01 6.073420e-03 2.346891e-02 2.920622e-02 -2.946962e-02
1.925000e+11 -3.740860e-02 -1.884732e-02 2.111221e-02 2.029223e-02 8.863588e-01 -4.154340e-01 8.429485e-03 1.270333e-02 2.117197e-02 2.004901e-02 -3.359434e-02 -1.515278e-02 8.469242e-03 1.289649e-02 8.863421e-01 -4.178615e-01 8.840335e-01 -4.209411e-01 7.584860e-03 1.145336e-02 2.921099e-02 -3.367187e-02 6.220847e-03 2.387676e-02 8.063906e-03 1.205027e-02 8.852902e-01 -4.211374e-01 6.072630e-03 2.394015e-02 2.997260e-02 -3.060596e-02
1.960000e+11 -3.925901e-02 -1.831955e-02 2.181919e-02 2.037548e-02 8.828175e-01 -4.224767e-01 8.765711e-03 1.283278e-02 2.187427e-02 2.012618e-02 -3.529090e-02 -1.461610e-02 8.804550e-03 1.302946e-02 8.827709e-01 -4.249426e-01 8.803773e-01 -4.280526e-01 7.892069e-03 1.156896e-02 3.000705e-02 -3.490444e-02 6.232383e-03 2.435141e-02 8.389988e-03 1.217083e-02 8.816715e-01 -4.282707e-01 6.074424e-03 2.441942e-02 3.073780e-02 -3.177433e-02
1.995000e+11 -4.112249e-02 -1.773731e-02 2.253316e-02 2.044211e-02 8.792129e-01 -4.294965e-01 9.106120e-03 1.295495e-02 2.258343e-02 2.018685e-02 -3.699902e-02 -1.402891e-02 9.144046e-03 1.315527e-02 8.791359e-01 -4.320005e-01 8.766562e-01 -4.351391e-01 8.203089e-03 1.167787e-02 3.080110e-02 -3.617146e-02 6.246874e-03 2.483370e-02 8.720103e-03 1.228425e-02 8.779880e-01 -4.353803e-01 6.079098e-03 2.490669e-02 3.150094e-02 -3.297492e-02
2.030000e+11 -4.299775e-02 -1.710022e-02 2.325377e-02 2.049196e-02 8.755447e-01 -4.364929e-01 9.450566e-03 1.306979e-02 2.329911e-02 2.023086e-02 -3.871748e-02 -1.339085e-02 9.487588e-03 1.327386e-02 8.754368e-01 -4.390347e-01 8.728700e-01 -4.421999e-01 8.517785e-03 1.178001e-02 3.159221e-02 -3.747310e-02 6.264602e-03 2.532358e-02 9.054105e-03 1.239046e-02 8.742397e-01 -4.424656e-01 6.086945e-03 2.540191e-02 3.226119e-02 -3.420792e-02
2.065000e+11 -4.488347e-02 -1.640791e-02 2.398066e-02 2.052487e-02 8.718129e-01 -4.434653e-01 9.798903e-03 1.317723e-02 2.402098e-02 2.025806e-02 -4.044507e-02 -1.270158e-02 9.835032e-03 1.338514e-02 8.716736e-01 -4.460446e-01 8.690187e-01 -4.492346e-01 8.836021e-03 1.187533e-02 3.237944e-02 -3.880954e-02 6.285844e-03 2.582101e-02 9.391849e-03 1.248939e-02 8.704265e-01 -4.495259e-01 6.098251e-03 2.590504e-02 3.301768e-02 -3.547352e-02
2.100000e+11 -4.677835e-02 -1.566004e-02 2.471348e-02 2.054070e-02 8.680174e-01 -4.504130e-01 1.015099e-02 1.327720e-02 2.474867e-02 2.026829e-02 -4.218057e-02 -1.196079e-02 1.018624e-02 1.348907e-02 8.678461e-01 -4.530297e-01 8.651021e-01 -4.562424e-01 9.157661e-03 1.196378e-02 3.316187e-02 -4.018094e-02 6.310878e-03 2.632594e-02 9.733189e-03 1.258099e-02 8.665481e-01 -4.565608e-01 6.113302e-03 2.641603e-02 3.376954e-02 -3.677187e-02
2.135000e+11 -4.868110e-02 -1.485628e-02 2.545189e-02 2.053929e-02 8.641579e-01 -4.573357e-01 1.050667e-02 1.336964e-02 2.548184e-02 2.026142e-02 -4.392276e-02 -1.116818e-02 1.054106e-02 1.358557e-02 8.639542e-01 -4.599893e-01 8.611203e-01 -4.632229e-01 9.482570e-03 1.204529e-02 3.393854e-02 -4.158741e-02 6.339974e-03 2.683833e-02 1.007798e-02 1.266519e-02 8.626045e-01 -4.635695e-01 6.132380e-03 2.693485e-02 3.451591e-02 -3.810312e-02
2.170000e+11 -5.059038e-02 -1.399633e-02 2.619553e-02 2.052051e-02 8.602345e-01 -4.642326e-01 1.086580e-02 1.345449e-02 2.622014e-02 2.023731e-02 -4.567042e-02 -1.032346e-02 1.089935e-02 1.367458e-02 8.599978e-01 -4.669228e-01 8.570731e-01 -4.701754e-01 9.810611e-03 1.211981e-02 3.470852e-02 -4.302910e-02 6.373403e-03 2.735811e-02 1.042608e-02 1.274193e-02 8.585956e-01 -4.705516e-01 6.155764e-03 2.746142e-02 3.525590e-02 -3.946738e-02
2.205000e+11 -5.250489e-02 -1.307989e-02 2.694404e-02 2.048422e-02 8.562470e-01 -4.711031e-01 1.122823e-02 1.353169e-02 2.696322e-02 2.019581e-02 -4.742232e-02 -9.426377e-03 1.126098e-02 1.375605e-02 8.559767e-01 -4.738298e-01 8.529604e-01 -4.770993e-01 1.014165e-02 1.218729e-02 3.547086e-02 -4.450608e-02 6.411433e-03 2.788524e-02 1.077733e-02 1.281116e-02 8.545212e-01 -4.775064e-01 6.183731e-03 2.799570e-02 3.598862e-02 -4.086477e-02
2.240000e+11 -5.442329e-02 -1.210669e-02 2.769705e-02 2.043031e-02 8.521953e-01 -4.779468e-01 1.159383e-02 1.360117e-02 2.771071e-02 2.013680e-02 -4.917722e-02 -8.476683e-03 1.162579e-02 1.382990e-02 8.518909e-01 -4.807096e-01 8.487822e-01 -4.839940e-01 1.047554e-02 1.224766e-02 3.622459e-02 -4.601845e-02 6.454330e-03 2.841965e-02 1.113160e-02 1.287282e-02 8.503813e-01 -4.844333e-01 6.216557e-03 2.853763e-02 3.671319e-02 -4.229538e-02
2.275000e+11 -5.634426e-02 -1.107650e-02 2.845421e-02 2.035863e-02 8.480792e-01 -4.847629e-01 1.196243e-02 1.366289e-02 2.846225e-02 2.006016e-02 -5.093389e-02 -7.474156e-03 1.199364e-02 1.389609e-02 8.477402e-01 -4.875615e-01 8.445383e-01 -4.908588e-01 1.081216e-02 1.230089e-02 3.696875e-02 -4.756627e-02 6.502357e-03 2.896127e-02 1.148873e-02 1.292685e-02 8.461758e-01 -4.913317e-01 6.254515e-03 2.908714e-02 3.742872e-02 -4.375927e-02
2.310000e+11 -5.826646e-02 -9.989085e-03 2.921515e-02 2.026908e-02 8.438986e-01 -4.915510e-01 1.233389e-02 1.371678e-02 2.921748e-02 1.996577e-02 -5.269107e-02 -6.418592e-03 1.236438e-02 1.395455e-02 8.435246e-01 -4.943849e-01 8.402288e-01 -4.976932e-01 1.115137e-02 1.234691e-02 3.770238e-02 -4.914957e-02 6.555776e-03 2.951004e-02 1.184859e-02 1.297321e-02 8.419044e-01 -4.982010e-01 6.297875e-03 2.964416e-02 3.813429e-02 -4.525650e-02
2.345000e+11 -6.018855e-02 -8.844242e-03 2.997951e-02 2.016154e-02 8.396535e-01 -4.983102e-01 1.270807e-02 1.376279e-02 2.997604e-02 1.985351e-02 -5.444752e-02 -5.309808e-03 1.273788e-02 1.400523e-02 8.392438e-01 -5.011793e-01 8.358536e-01 -5.044965e-01 1.149302e-02 1.238568e-02 3.842451e-02 -5.076838e-02 6.614847e-03 3.006588e-02 1.221101e-02 1.301183e-02 8.375672e-01 -5.050404e-01 6.346908e-03 3.020861e-02 3.882901e-02 -4.678710e-02
2.380000e+11 -6.210918e-02 -7.641792e-03 3.074690e-02 2.003590e-02 8.353437e-01 -5.050402e-01 1.308480e-02 1.380087e-02 3.073756e-02 1.972328e-02 -5.620197e-02 -4.147644e-03 1.311398e-02 1.404808e-02 8.348978e-01 -5.079440e-01 8.314125e-01 -5.112680e-01 1.183697e-02 1.241715e-02 3.913416e-02 -5.242271e-02 6.679830e-03 3.062871e-02 1.257585e-02 1.304267e-02 8.331640e-01 -5.118495e-01 6.401882e-03 3.078043e-02 3.951196e-02 -4.835108e-02
2.415000e+11 -6.402700e-02 -6.381577e-03 3.151696e-02 1.989207e-02 8.309692e-01 -5.117400e-01 1.346395e-02 1.383096e-02 3.150167e-02 1.957497e-02 -5.795317e-02 -2.931959e-03 1.349253e-02 1.408304e-02 8.304866e-01 -5.146783e-01 8.269055e-01 -5.180070e-01 1.218310e-02 1.244127e-02 3.983036e-02 -5.411253e-02 6.750982e-03 3.119846e-02 1.294297e-02 1.306568e-02 8.286948e-01 -5.186274e-01 6.463063e-03 3.135953e-02 4.018223e-02 -4.994844e-02
2.450000e+11 -6.594065e-02 -5.063462e-03 3.228932e-02 1.972994e-02 8.265297e-01 -5.184093e-01 1.384535e-02 1.385302e-02 3.226798e-02 1.940850e-02 -5.969984e-02 -1.662636e-03 1.387339e-02 1.411007e-02 8.260099e-01 -5.213816e-01 8.223325e-01 -5.247130e-01 1.253125e-02 1.245801e-02 4.051211e-02 -5.583781e-02 6.828558e-03 3.177503e-02 1.331221e-02 1.308081e-02 8.241593e-01 -5.253736e-01 6.530716e-03 3.194582e-02 4.083889e-02 -5.157916e-02
2.485000e+11 -6.784875e-02 -3.687336e-03 3.306358e-02 1.954943e-02 8.220253e-01 -5.250472e-01 1.422886e-02 1.386699e-02 3.303614e-02 1.922377e-02 -6.144072e-02 -3.395787e-04 1.425641e-02 1.412910e-02 8.214677e-01 -5.280532e-01 8.176935e-01 -5.313853e-01 1.288129e-02 1.246730e-02 4.117844e-02 -5.759849e-02 6.912814e-03 3.235834e-02 1.368342e-02 1.308801e-02 8.195576e-01 -5.320873e-01 6.605105e-03 3.253921e-02 4.148103e-02 -5.324319e-02
2.520000e+11 -6.974995e-02 -2.253113e-03 3.383938e-02 1.935045e-02 8.174557e-01 -5.316531e-01 1.461432e-02 1.387283e-02 3.380574e-02 1.902070e-02 -6.317453e-02 1.037286e-03 1.464144e-02 1.414011e-02 8.168598e-01 -5.346924e-01 8.129884e-01 -5.380230e-01 1.323307e-02 1.246912e-02 4.182834e-02 -5.939448e-02 7.004001e-03 3.294829e-02 1.405645e-02 1.308725e-02 8.148895e-01 -5.387680e-01 6.686493e-03 3.313960e-02 4.210771e-02 -5.494045e-02
2.555000e+11 -7.164286e-02 -7.607304e-04 3.461632e-02 1.913293e-02 8.128210e-01 -5.382264e-01 1.500158e-02 1.387050e-02 3.457643e-02 1.879920e-02 -6.489997e-02 2.468007e-03 1.502832e-02 1.414303e-02 8.121863e-01 -5.412986e-01 8.082172e-01 -5.446256e-01 1.358646e-02 1.246342e-02 4.246083e-02 -6.122570e-02 7.102373e-03 3.354478e-02 1.443115e-02 1.307847e-02 8.101550e-01 -5.454148e-01 6.775140e-03 3.374690e-02 4.271800e-02 -5.667088e-02
2.590000e+11 -7.352610e-02 7.898473e-04 3.539403e-02 1.889680e-02 8.081210e-01 -5.447662e-01 1.539049e-02 1.385995e-02 3.534781e-02 1.855922e-02 -6.661577e-02 3.952610e-03 1.541690e-02 1.413783e-02 8.074469e-01 -5.478710e-01 8.033798e-01 -5.511923e-01 1.394130e-02 1.245017e-02 4.307492e-02 -6.309200e-02 7.208180e-03 3.414769e-02 1.480736e-02 1.306165e-02 8.053539e-01 -5.520270e-01 6.871307e-03 3.436099e-02 4.331096e-02 -5.843436e-02
2.625000e+11 -7.539828e-02 2.398632e-03 3.617211e-02 1.864198e-02 8.033555e-01 -5.512720e-01 1.578088e-02 1.384115e-02 3.611949e-02 1.830069e-02 -6.832062e-02 5.491097e-03 1.580703e-02 1.412447e-02 8.026416e-01 -5.544089e-01 7.984761e-01 -5.577225e-01 1.429745e-02 1.242933e-02 4.366959e-02 -6.499326e-02 7.321670e-03 3.475693e-02 1.518493e-02 1.303674e-02 8.004862e-01 -5.586040e-01 6.975252e-03 3.498176e-02 4.388567e-02 -6.023075e-02
2.660000e+11 -7.725801e-02 4.065608e-03 3.695017e-02 1.836843e-02 7.985247e-01 -5.577430e-01 1.617260e-02 1.381405e-02 3.689108e-02 1.802354e-02 -7.001323e-02 7.083445e-03 1.619856e-02 1.410290e-02 7.977704e-01 -5.609117e-01 7.935062e-01 -5.642153e-01 1.465478e-02 1.240086e-02 4.424384e-02 -6.692929e-02 7.443092e-03 3.537237e-02 1.556370e-02 1.300370e-02 7.955518e-01 -5.651450e-01 7.087231e-03 3.560910e-02 4.444118e-02 -6.205992e-02
2.695000e+11 -7.910389e-02 5.790735e-03 3.772782e-02 1.807609e-02 7.936282e-01 -5.641785e-01 1.656549e-02 1.377861e-02 3.766220e-02 1.772773e-02 -7.169230e-02 8.729606e-03 1.659133e-02 1.407309e-02 7.928330e-01 -5.673785e-01 7.884699e-01 -5.706700e-01 1.501312e-02 1.236474e-02 4.479669e-02 -6.889991e-02 7.572691e-03 3.599389e-02 1.594351e-02 1.296250e-02 7.905506e-01 -5.716492e-01 7.207499e-03 3.624288e-02 4.497654e-02 -6.392169e-02
2.730000e+11 -8.093453e-02 7.573943e-03 3.850466e-02 1.776492e-02 7.886662e-01 -5.705777e-01 1.695939e-02 1.373481e-02 3.843245e-02 1.741321e-02 -7.335652e-02 1.042951e-02 1.698518e-02 1.403500e-02 7.878296e-01 -5.738086e-01 7.833672e-01 -5.770858e-01 1.537234e-02 1.232092e-02 4.532711e-02 -7.090490e-02 7.710712e-03 3.662136e-02 1.632422e-02 1.291312e-02 7.854826e-01 -5.781158e-01 7.336312e-03 3.688298e-02 4.549081e-02 -6.581587e-02
2.765000e+11 -8.274850e-02 9.415138e-03 3.928029e-02 1.743488e-02 7.836384e-01 -5.769399e-01 1.735414e-02 1.368262e-02 3.920144e-02 1.707995e-02 -7.500458e-02 1.218305e-02 1.737996e-02 1.398860e-02 7.827598e-01 -5.802012e-01 7.781981e-01 -5.834620e-01 1.573229e-02 1.226939e-02 4.583411e-02 -7.294403e-02 7.857398e-03 3.725465e-02 1.670566e-02 1.285552e-02 7.803476e-01 -5.845442e-01 7.473921e-03 3.752924e-02 4.598305e-02 -6.774224e-02
2.800000e+11 -8.454442e-02 1.131419e-02 4.005432e-02 1.708594e-02 7.785448e-01 -5.832643e-01 1.774959e-02 1.362199e-02 3.996876e-02 1.672792e-02 -7.663516e-02 1.399011e-02 1.777551e-02 1.393386e-02 7.776238e-01 -5.865556e-01 7.729626e-01 -5.897979e-01 1.609281e-02 1.221012e-02 4.631667e-02 -7.501703e-02 8.012990e-03 3.789362e-02 1.708767e-02 1.278967e-02 7.751457e-01 -5.909335e-01 7.620576e-03 3.818155e-02 4.645231e-02 -6.970056e-02
2.835000e+11 -8.632085e-02 1.327096e-02 4.082633e-02 1.671808e-02 7.733854e-01 -5.895501e-01 1.814556e-02 1.355291e-02 4.073401e-02 1.635709e-02 -7.824695e-02 1.585054e-02 1.817167e-02 1.387075e-02 7.724215e-01 -5.928709e-01 7.676606e-01 -5.960925e-01 1.645377e-02 1.214308e-02 4.677379e-02 -7.712362e-02 8.177728e-03 3.853813e-02 1.747009e-02 1.271555e-02 7.698767e-01 -5.972828e-01 7.776526e-03 3.883974e-02 4.689765e-02 -7.169057e-02
2.870000e+11 -8.807640e-02 1.528526e-02 4.159594e-02 1.633127e-02 7.681601e-01 -5.957964e-01 1.854190e-02 1.347534e-02 4.149680e-02 1.596745e-02 -7.983863e-02 1.776415e-02 1.856828e-02 1.379925e-02 7.671527e-01 -5.991464e-01 7.622922e-01 -6.023450e-01 1.681499e-02 1.206825e-02 4.720447e-02 -7.926349e-02 8.351850e-03 3.918802e-02 1.785276e-02 1.263314e-02 7.645406e-01 -6.035914e-01 7.942019e-03 3.950367e-02 4.731811e-02 -7.371200e-02
2.905000e+11 -8.980963e-02 1.735688e-02 4.236272e-02 1.592552e-02 7.628688e-01 -6.020026e-01 1.893843e-02 1.338928e-02 4.225671e-02 1.555899e-02 -8.140888e-02 1.973075e-02 1.896517e-02 1.371932e-02 7.618174e-01 -6.053812e-01 7.568573e-01 -6.085548e-01 1.717635e-02 1.198561e-02 4.760769e-02 -8.143631e-02 8.535591e-03 3.984314e-02 1.823551e-02 1.254241e-02 7.591374e-01 -6.098585e-01 8.117298e-03 4.017318e-02 4.771275e-02 -7.576452e-02
2.940000e+11 -9.151912e-02 1.948558e-02 4.312626e-02 1.550082e-02 7.575116e-01 -6.081678e-01 1.933501e-02 1.329469e-02 4.301334e-02 1.513171e-02 -8.295637e-02 2.175009e-02 1.936219e-02 1.363095e-02 7.564157e-01 -6.115745e-01 7.513559e-01 -6.147208e-01 1.753767e-02 1.189515e-02 4.798245e-02 -8.364171e-02 8.729184e-03 4.050332e-02 1.861820e-02 1.244335e-02 7.536671e-01 -6.160831e-01 8.302607e-03 4.084810e-02 4.808063e-02 -7.784782e-02
2.975000e+11 -9.320346e-02 2.167110e-02 4.388617e-02 1.505718e-02 7.520883e-01 -6.142910e-01 1.973145e-02 1.319156e-02 4.376629e-02 1.468561e-02 -8.447978e-02 2.382192e-02 1.975917e-02 1.353412e-02 7.509474e-01 -6.177254e-01 7.457881e-01 -6.208422e-01 1.789882e-02 1.179685e-02 4.832776e-02 -8.587932e-02 8.932861e-03 4.116839e-02 1.900064e-02 1.233594e-02 7.481296e-01 -6.222644e-01 8.498186e-03 4.152825e-02 4.842080e-02 -7.996154e-02
3.010000e+11 -9.486121e-02 2.391312e-02 4.464203e-02 1.459461e-02 7.465989e-01 -6.203715e-01 2.012759e-02 1.307987e-02 4.451513e-02 1.422072e-02 -8.597778e-02 2.594595e-02 2.015595e-02 1.342880e-02 7.454126e-01 -6.238331e-01 7.401538e-01 -6.269182e-01 1.825963e-02 1.169069e-02 4.864260e-02 -8.814872e-02 9.146851e-03 4.183818e-02 1.938268e-02 1.222018e-02 7.425248e-01 -6.284016e-01 8.704274e-03 4.221347e-02 4.873231e-02 -8.210529e-02
3.045000e+11 -9.649097e-02 2.621134e-02 4.539342e-02 1.411313e-02 7.410434e-01 -6.264084e-01 2.052327e-02 1.295961e-02 4.525947e-02 1.373704e-02 -8.744905e-02 2.812185e-02 2.055236e-02 1.331500e-02 7.398111e-01 -6.298966e-01 7.344531e-01 -6.329478e-01 1.861995e-02 1.157667e-02 4.892598e-02 -9.044949e-02 9.371380e-03 4.251251e-02 1.976414e-02 1.209605e-02 7.368529e-01 -6.344936e-01 8.921105e-03 4.290356e-02 4.901424e-02 -8.427869e-02
3.080000e+11 -9.809129e-02 2.856537e-02 4.613993e-02 1.361278e-02 7.354219e-01 -6.324007e-01 2.091831e-02 1.283078e-02 4.599888e-02 1.323463e-02 -8.889225e-02 3.034928e-02 2.094823e-02 1.319269e-02 7.341431e-01 -6.359150e-01 7.286860e-01 -6.389302e-01 1.897962e-02 1.145478e-02 4.917691e-02 -9.278116e-02 9.606673e-03 4.319119e-02 2.014488e-02 1.196354e-02 7.311138e-01 -6.405397e-01 9.148914e-03 4.359834e-02 4.926563e-02 -8.648129e-02
3.115000e+11 -9.966075e-02 3.097484e-02 4.688113e-02 1.309359e-02 7.297343e-01 -6.383476e-01 2.131254e-02 1.269336e-02 4.673296e-02 1.271350e-02 -9.030607e-02 3.262787e-02 2.134340e-02 1.306187e-02 7.284085e-01 -6.418875e-01 7.228526e-01 -6.448645e-01 1.933848e-02 1.132501e-02 4.939439e-02 -9.514324e-02 9.852949e-03 4.387403e-02 2.052470e-02 1.182265e-02 7.253075e-01 -6.465388e-01 9.387929e-03 4.429761e-02 4.948556e-02 -8.871265e-02
3.150000e+11 -1.011979e-01 3.343931e-02 4.761662e-02 1.255561e-02 7.239805e-01 -6.442482e-01 2.170580e-02 1.254735e-02 4.746128e-02 1.217372e-02 -9.168917e-02 3.495721e-02 2.173770e-02 1.292252e-02 7.226074e-01 -6.478131e-01 7.169530e-01 -6.507496e-01 1.969639e-02 1.118736e-02 4.957744e-02 -9.753523e-02 1.011043e-02 4.456082e-02 2.090345e-02 1.167337e-02 7.194340e-01 -6.524901e-01 9.638378e-03 4.500116e-02 4.967310e-02 -9.097230e-02
3.185000e+11 -1.027014e-01 3.595833e-02 4.834598e-02 1.199890e-02 7.181608e-01 -6.501014e-01 2.209790e-02 1.239275e-02 4.818342e-02 1.161533e-02 -9.304024e-02 3.733685e-02 2.213096e-02 1.277466e-02 7.167397e-01 -6.536909e-01 7.109871e-01 -6.565847e-01 2.005317e-02 1.104184e-02 4.972507e-02 -9.995658e-02 1.037932e-02 4.525135e-02 2.128096e-02 1.151572e-02 7.134935e-01 -6.583925e-01 9.900485e-03 4.570878e-02 4.982732e-02 -9.325973e-02
3.220000e+11 -1.041698e-01 3.853141e-02 4.906878e-02 1.142351e-02 7.122750e-01 -6.559064e-01 2.248869e-02 1.222957e-02 4.889898e-02 1.103840e-02 -9.435795e-02 3.976633e-02 2.252301e-02 1.261827e-02 7.108055e-01 -6.595198e-01 7.049551e-01 -6.623688e-01 2.040868e-02 1.088844e-02 4.983632e-02 -1.024067e-01 1.065985e-02 4.594542e-02 2.165706e-02 1.134969e-02 7.074858e-01 -6.642450e-01 1.017447e-02 4.642025e-02 4.994731e-02 -9.557442e-02
3.255000e+11 -1.056016e-01 4.115803e-02 4.978459e-02 1.082953e-02 7.063233e-01 -6.616621e-01 2.287797e-02 1.205780e-02 4.960753e-02 1.044301e-02 -9.564098e-02 4.224515e-02 2.291368e-02 1.245337e-02 7.048049e-01 -6.652989e-01 6.988572e-01 -6.681008e-01 2.076274e-02 1.072717e-02 4.991021e-02 -1.048851e-01 1.095221e-02 4.664279e-02 2.203157e-02 1.117530e-02 7.014112e-01 -6.700468e-01 1.046055e-02 4.713535e-02 5.003214e-02 -9.791581e-02
3.290000e+11 -1.069955e-01 4.383763e-02 5.049301e-02 1.021703e-02 7.003056e-01 -6.673676e-01 2.326559e-02 1.187746e-02 5.030865e-02 9.829223e-03 -9.688802e-02 4.477279e-02 2.330279e-02 1.227995e-02 6.987379e-01 -6.710272e-01 6.926933e-01 -6.737798e-01 2.111521e-02 1.055804e-02 4.994578e-02 -1.073910e-01 1.125661e-02 4.734326e-02 2.240432e-02 1.099254e-02 6.952697e-01 -6.757966e-01 1.075894e-02 4.785386e-02 5.008091e-02 -1.002833e-01
3.325000e+11 -1.083500e-01 4.656963e-02 5.119361e-02 9.586100e-03 6.942222e-01 -6.730218e-01 2.365136e-02 1.168855e-02 5.100192e-02 9.197146e-03 -9.809775e-02 4.734867e-02 2.369018e-02 1.209802e-02 6.926046e-01 -6.767036e-01 6.864637e-01 -6.794049e-01 2.146591e-02 1.038106e-02 4.994207e-02 -1.099239e-01 1.157326e-02 4.804657e-02 2.277515e-02 1.080144e-02 6.890613e-01 -6.814936e-01 1.106985e-02 4.857552e-02 5.009272e-02 -1.026764e-01
3.360000e+11 -1.096637e-01 4.935340e-02 5.188596e-02 8.936842e-03 6.880730e-01 -6.786237e-01 2.403512e-02 1.149109e-02 5.168692e-02 8.546872e-03 -9.926888e-02 4.997221e-02 2.407567e-02 1.190761e-02 6.864052e-01 -6.823272e-01 6.801684e-01 -6.849748e-01 2.181469e-02 1.019625e-02 4.989815e-02 -1.124831e-01 1.190234e-02 4.875250e-02 2.314388e-02 1.060201e-02 6.827862e-01 -6.871367e-01 1.139349e-02 4.930009e-02 5.006668e-02 -1.050943e-01
3.395000e+11 -1.109353e-01 5.218828e-02 5.256964e-02 8.269364e-03 6.818582e-01 -6.841723e-01 2.441667e-02 1.128510e-02 5.236322e-02 7.878511e-03 -1.004001e-01 5.264278e-02 2.445908e-02 1.170871e-02 6.801396e-01 -6.878968e-01 6.738077e-01 -6.904886e-01 2.216138e-02 1.000363e-02 4.981306e-02 -1.150679e-01 1.224405e-02 4.946079e-02 2.351033e-02 1.039427e-02 6.764446e-01 -6.927247e-01 1.173005e-02 5.002733e-02 5.000190e-02 -1.075365e-01
3.430000e+11 -1.121633e-01 5.507358e-02 5.324423e-02 7.583782e-03 6.755779e-01 -6.896666e-01 2.479584e-02 1.107061e-02 5.303042e-02 7.192179e-03 -1.014901e-01 5.535971e-02 2.484025e-02 1.150136e-02 6.738082e-01 -6.934114e-01 6.673818e-01 -6.959453e-01 2.250582e-02 9.803208e-03 4.968589e-02 -1.176774e-01 1.259858e-02 5.017119e-02 2.387434e-02 1.017825e-02 6.700365e-01 -6.982567e-01 1.207973e-02 5.075697e-02 4.989751e-02 -1.100023e-01
3.465000e+11 -1.133464e-01 5.800858e-02 5.390930e-02 6.880225e-03 6.692323e-01 -6.951053e-01 2.517247e-02 1.084762e-02 5.368808e-02 6.488005e-03 -1.025376e-01 5.812233e-02 2.521899e-02 1.128557e-02 6.674110e-01 -6.988699e-01 6.608907e-01 -7.013437e-01 2.284785e-02 9.595016e-03 4.951572e-02 -1.203111e-01 1.296612e-02 5.088344e-02 2.423572e-02 9.953974e-03 6.635622e-01 -7.037315e-01 1.244272e-02 5.148875e-02 4.975263e-02 -1.124909e-01
3.500000e+11 -1.144832e-01 6.099250e-02 5.456444e-02 6.158827e-03 6.628215e-01 -7.004876e-01 2.554636e-02 1.061618e-02 5.433578e-02 5.766125e-03 -1.035414e-01 6.092991e-02 2.559513e-02 1.106137e-02 6.609482e-01 -7.042712e-01 6.543348e-01 -7.066827e-01 2.318729e-02 9.379081e-03 4.930164e-02 -1.229681e-01 1.334683e-02 5.159728e-02 2.459430e-02 9.721468e-03 6.570218e-01 -7.091479e-01 1.281922e-02 5.222240e-02 4.956643e-02 -1.150016e-01
3.535000e+11 -1.155722e-01 6.402457e-02 5.520921e-02 5.419736e-03 6.563458e-01 -7.058121e-01 2.591734e-02 1.037631e-02 5.497311e-02 5.026684e-03 -1.045001e-01 6.378169e-02 2.596849e-02 1.082878e-02 6.544199e-01 -7.096142e-01 6.477144e-01 -7.119613e-01 2.352400e-02 9.155432e-03 4.904276e-02 -1.256476e-01 1.374090e-02 5.231243e-02 2.494991e-02 9.480767e-03 6.504156e-01 -7.145049e-01 1.320940e-02 5.295763e-02 4.933804e-02 -1.175338e-01
3.570000e+11 -1.166122e-01 6.710393e-02 5.584320e-02 4.663106e-03 6.498052e-01 -7.110778e-01 2.628524e-02 1.012805e-02 5.559965e-02 4.269840e-03 -1.054125e-01 6.667687e-02 2.633890e-02 1.058785e-02 6.478265e-01 -7.148977e-01 6.410295e-01 -7.171782e-01 2.385780e-02 8.924104e-03 4.873820e-02 -1.283488e-01 1.414849e-02 5.302861e-02 2.530237e-02 9.231909e-03 6.437437e-01 -7.198013e-01 1.361343e-02 5.369417e-02 4.906665e-02 -1.200865e-01
3.605000e+11 -1.176019e-01 7.022973e-02 5.646598e-02 3.889104e-03 6.432002e-01 -7.162836e-01 2.664986e-02 9.871434e-03 5.621497e-02 3.495758e-03 -1.062774e-01 6.961465e-02 2.670618e-02 1.033859e-02 6.411681e-01 -7.201206e-01 6.342806e-01 -7.223324e-01 2.418852e-02 8.685134e-03 4.838710e-02 -1.310707e-01 1.456976e-02 5.374554e-02 2.565150e-02 8.974935e-03 6.370065e-01 -7.250360e-01 1.403150e-02 5.443171e-02 4.875142e-02 -1.226589e-01
3.640000e+11 -1.185397e-01 7.340105e-02 5.707714e-02 3.097904e-03 6.365308e-01 -7.214283e-01 2.701103e-02 9.606510e-03 5.681865e-02 2.704612e-03 -1.070935e-01 7.259415e-02 2.707015e-02 1.008107e-02 6.344451e-01 -7.252818e-01 6.274679e-01 -7.274228e-01 2.451601e-02 8.438563e-03 4.798859e-02 -1.338126e-01 1.500488e-02 5.446292e-02 2.599713e-02 8.709890e-03 6.302041e-01 -7.302077e-01 1.446376e-02 5.516997e-02 4.839156e-02 -1.252504e-01
3.675000e+11 -1.194246e-01 7.661696e-02 5.767625e-02 2.289693e-03 6.297975e-01 -7.265108e-01 2.736858e-02 9.333323e-03 5.741029e-02 1.896590e-03 -1.078595e-01 7.561449e-02 2.743063e-02 9.815311e-03 6.276576e-01 -7.303799e-01 6.205918e-01 -7.324480e-01 2.484010e-02 8.184434e-03 4.754185e-02 -1.365734e-01 1.545399e-02 5.518045e-02 2.633908e-02 8.436822e-03 6.233369e-01 -7.353153e-01 1.491037e-02 5.590863e-02 4.798628e-02 -1.278599e-01
3.710000e+11 -1.202550e-01 7.987648e-02 5.826291e-02 1.464666e-03 6.230004e-01 -7.315297e-01 2.772232e-02 9.051921e-03 5.798947e-02 1.071887e-03 -1.085743e-01 7.867474e-02 2.778745e-02 9.541368e-03 6.208060e-01 -7.354139e-01 6.136527e-01 -7.374070e-01 2.516061e-02 7.922796e-03 4.704606e-02 -1.393523e-01 1.591723e-02 5.589784e-02 2.667718e-02 8.155783e-03 6.164053e-01 -7.403576e-01 1.537149e-02 5.664738e-02 4.753480e-02 -1.304865e-01
3.745000e+11 -1.210298e-01 8.317859e-02 5.883669e-02 6.230283e-04 6.161400e-01 -7.364841e-01 2.807206e-02 8.762360e-03 5.855577e-02 2.307092e-04 -1.092367e-01 8.177394e-02 2.814042e-02 9.259291e-03 6.138907e-01 -7.403825e-01 6.066508e-01 -7.422986e-01 2.547739e-02 7.653700e-03 4.650041e-02 -1.421482e-01 1.639474e-02 5.661476e-02 2.701124e-02 7.866829e-03 6.094096e-01 -7.453332e-01 1.584727e-02 5.738591e-02 4.703635e-02 -1.331295e-01
3.780000e+11 -1.217477e-01 8.652225e-02 5.939718e-02 -2.350030e-04 6.092166e-01 -7.413725e-01 2.841764e-02 8.464697e-03 5.910878e-02 -6.267276e-04 -1.098455e-01 8.491111e-02 2.848938e-02 8.969134e-03 6.069120e-01 -7.452846e-01 5.995867e-01 -7.471215e-01 2.579027e-02 7.377200e-03 4.590412e-02 -1.449602e-01 1.688666e-02 5.733090e-02 2.734110e-02 7.570020e-03 6.023501e-01 -7.502411e-01 1.633783e-02 5.812389e-02 4.649020e-02 -1.357878e-01
3.815000e+11 -1.224073e-01 8.990637e-02 5.994397e-02 -1.109201e-03 6.022305e-01 -7.461938e-01 2.875887e-02 8.158994e-03 5.964810e-02 -1.500196e-03 -1.103994e-01 8.808521e-02 2.883413e-02 8.670957e-03 5.998702e-01 -7.501187e-01 5.924608e-01 -7.518745e-01 2.609908e-02 7.093356e-03 4.525642e-02 -1.477872e-01 1.739311e-02 5.804594e-02 2.766657e-02 7.265420e-03 5.952273e-01 -7.550799e-01 1.684331e-02 5.886098e-02 4.589563e-02 -1.384605e-01
3.850000e+11 -1.230075e-01 9.332982e-02 6.047665e-02 -1.999330e-03 5.951822e-01 -7.509468e-01 2.909556e-02 7.845317e-03 6.017331e-02 -2.389460e-03 -1.108975e-01 9.129517e-02 2.917451e-02 8.364823e-03 5.927659e-01 -7.548838e-01 5.852735e-01 -7.565564e-01 2.640367e-02 6.802231e-03 4.455657e-02 -1.506282e-01 1.791421e-02 5.875955e-02 2.798749e-02 6.953096e-03 5.880416e-01 -7.598483e-01 1.736384e-02 5.959685e-02 4.525192e-02 -1.411465e-01
3.885000e+11 -1.235470e-01 9.679144e-02 6.099482e-02 -2.905141e-03 5.880721e-01 -7.556302e-01 2.942755e-02 7.523737e-03 6.068402e-02 -3.294271e-03 -1.113384e-01 9.453992e-02 2.951032e-02 8.050797e-03 5.855995e-01 -7.595785e-01 5.780253e-01 -7.611659e-01 2.670385e-02 6.503889e-03 4.380385e-02 -1.534821e-01 1.845006e-02 5.947139e-02 2.830366e-02 6.633122e-03 5.807935e-01 -7.645452e-01 1.789954e-02 6.033116e-02 4.455839e-02 -1.438449e-01
3.920000e+11 -1.240246e-01 1.002900e-01 6.149807e-02 -3.826376e-03 5.809007e-01 -7.602427e-01 2.975465e-02 7.194328e-03 6.117982e-02 -4.214370e-03 -1.117212e-01 9.781830e-02 2.984141e-02 7.728951e-03 5.783714e-01 -7.642015e-01 5.707168e-01 -7.657019e-01 2.699948e-02 6.198403e-03 4.299754e-02 -1.563478e-01 1.900077e-02 6.018113e-02 2.861493e-02 6.305571e-03 5.734835e-01 -7.691692e-01 1.845051e-02 6.106356e-02 4.381437e-02 -1.465546e-01
3.955000e+11 -1.244392e-01 1.038244e-01 6.198600e-02 -4.762766e-03 5.736685e-01 -7.647830e-01 3.007669e-02 6.857169e-03 6.166033e-02 -5.149490e-03 -1.120447e-01 1.011292e-01 3.016758e-02 7.399360e-03 5.710822e-01 -7.687517e-01 5.633485e-01 -7.701629e-01 2.729038e-02 5.885845e-03 4.213697e-02 -1.592241e-01 1.956643e-02 6.088840e-02 2.892111e-02 5.970526e-03 5.661121e-01 -7.737190e-01 1.901685e-02 6.179369e-02 4.301923e-02 -1.492746e-01
3.990000e+11 -1.247895e-01 1.073932e-01 6.245823e-02 -5.714032e-03 5.663761e-01 -7.692499e-01 3.039348e-02 6.512342e-03 6.212513e-02 -6.099349e-03 -1.123078e-01 1.044713e-01 3.048867e-02 7.062103e-03 5.637324e-01 -7.732276e-01 5.559210e-01 -7.745477e-01 2.757639e-02 5.566293e-03 4.122149e-02 -1.621099e-01 2.014713e-02 6.159287e-02 2.922203e-02 5.628071e-03 5.586798e-01 -7.781932e-01 1.959866e-02 6.252119e-02 4.217233e-02 -1.520037e-01
4.025000e+11 -1.250745e-01 1.109952e-01 6.291435e-02 -6.679882e-03 5.590239e-01 -7.736421e-01 3.070484e-02 6.159936e-03 6.257386e-02 -7.063658e-03 -1.125095e-01 1.078435e-01 3.080449e-02 6.717265e-03 5.563226e-01 -7.776279e-01 5.484349e-01 -7.788551e-01 2.785736e-02 5.239831e-03 4.025047e-02 -1.650040e-01 2.074294e-02 6.229418e-02 2.951752e-02 5.278294e-03 5.511874e-01 -7.825907e-01 2.019602e-02 6.324570e-02 4.127307e-02 -1.547409e-01
4.060000e+11 -1.252929e-01 1.146290e-01 6.335398e-02 -7.660015e-03 5.516127e-01 -7.779583e-01 3.101061e-02 5.800040e-03 6.300611e-02 -8.042116e-03 -1.126488e-01 1.112445e-01 3.111488e-02 6.364932e-03 5.488535e-01 -7.819515e-01 5.408910e-01 -7.830838e-01 2.813311e-02 4.906543e-03 3.922329e-02 -1.679052e-01 2.135394e-02 6.299196e-02 2.980741e-02 4.921288e-03 5.436354e-01 -7.869100e-01 2.080900e-02 6.396684e-02 4.032089e-02 -1.574850e-01
4.095000e+11 -1.254438e-01 1.182932e-01 6.377675e-02 -8.654121e-03 5.441430e-01 -7.821971e-01 3.131060e-02 5.432753e-03 6.342152e-02 -9.034411e-03 -1.127246e-01 1.146730e-01 3.141965e-02 6.005198e-03 5.413255e-01 -7.861968e-01 5.332898e-01 -7.872325e-01 2.840349e-02 4.566520e-03 3.813938e-02 -1.708122e-01 2.198018e-02 6.368585e-02 3.009152e-02 4.557151e-03 5.360245e-01 -7.911499e-01 2.143768e-02 6.468423e-02 3.931523e-02 -1.602349e-01
4.130000e+11 -1.255261e-01 1.219865e-01 6.418226e-02 -9.661874e-03 5.366155e-01 -7.863572e-01 3.160464e-02 5.058174e-03 6.381970e-02 -1.004022e-02 -1.127360e-01 1.181276e-01 3.171863e-02 5.638158e-03 5.337396e-01 -7.903627e-01 5.256322e-01 -7.912998e-01 2.866833e-02 4.219856e-03 3.699819e-02 -1.737238e-01 2.262171e-02 6.437548e-02 3.036969e-02 4.185984e-03 5.283554e-01 -7.953090e-01 2.208210e-02 6.539751e-02 3.825556e-02 -1.629892e-01
4.165000e+11 -1.255386e-01 1.257073e-01 6.457015e-02 -1.068294e-02 5.290310e-01 -7.904374e-01 3.189256e-02 4.676407e-03 6.420030e-02 -1.105921e-02 -1.126820e-01 1.216070e-01 3.201165e-02 5.263914e-03 5.260963e-01 -7.944477e-01 5.179189e-01 -7.952844e-01 2.892748e-02 3.866650e-03 3.579919e-02 -1.766387e-01 2.327858e-02 6.506046e-02 3.064174e-02 3.807894e-03 5.206288e-01 -7.993859e-01 2.274232e-02 6.610627e-02 3.714140e-02 -1.657470e-01
4.200000e+11 -1.254805e-01 1.294543e-01 6.494006e-02 -1.171698e-02 5.213902e-01 -7.944362e-01 3.217418e-02 4.287564e-03 6.456294e-02 -1.209103e-02 -1.125617e-01 1.251098e-01 3.229855e-02 4.882572e-03 5.183964e-01 -7.984505e-01 5.101507e-01 -7.991852e-01 2.918078e-02 3.507003e-03 3.454190e-02 -1.795556e-01 2.395081e-02 6.574042e-02 3.090751e-02 3.422991e-03 5.128456e-01 -8.033793e-01 2.341837e-02 6.681014e-02 3.597227e-02 -1.685069e-01
4.235000e+11 -1.253508e-01 1.332258e-01 6.529163e-02 -1.276363e-02 5.136938e-01 -7.983523e-01 3.244934e-02 3.891758e-03 6.490726e-02 -1.313534e-02 -1.123743e-01 1.286346e-01 3.257914e-02 4.494242e-03 5.106409e-01 -8.023699e-01 5.023284e-01 -8.030006e-01 2.942808e-02 3.141024e-03 3.322585e-02 -1.824731e-01 2.463842e-02 6.641498e-02 3.116683e-02 3.031391e-03 5.050065e-01 -8.072878e-01 2.411028e-02 6.750870e-02 3.474773e-02 -1.712676e-01
4.270000e+11 -1.251485e-01 1.370204e-01 6.562449e-02 -1.382253e-02 5.059428e-01 -8.021845e-01 3.271786e-02 3.489107e-03 6.523292e-02 -1.419176e-02 -1.121188e-01 1.321799e-01 3.285326e-02 4.099037e-03 5.028304e-01 -8.062043e-01 4.944530e-01 -8.067295e-01 2.966921e-02 2.768822e-03 3.185061e-02 -1.853900e-01 2.534144e-02 6.708375e-02 3.141954e-02 2.633213e-03 4.971125e-01 -8.111102e-01 2.481806e-02 6.820158e-02 3.346737e-02 -1.740279e-01
4.305000e+11 -1.248726e-01 1.408364e-01 6.593831e-02 -1.489330e-02 4.981379e-01 -8.059314e-01 3.297958e-02 3.079735e-03 6.553958e-02 -1.525992e-02 -1.117944e-01 1.357441e-01 3.312075e-02 3.697078e-03 4.949658e-01 -8.099526e-01 4.865254e-01 -8.103705e-01 2.990403e-02 2.390512e-03 3.041578e-02 -1.883048e-01 2.605985e-02 6.774632e-02 3.166547e-02 2.228580e-03 4.891644e-01 -8.148450e-01 2.554172e-02 6.888835e-02 3.213081e-02 -1.767866e-01
4.340000e+11 -1.245225e-01 1.446722e-01 6.623274e-02 -1.597556e-02 4.902802e-01 -8.095916e-01 3.323433e-02 2.663769e-03 6.582689e-02 -1.633944e-02 -1.114003e-01 1.393259e-01 3.338143e-02 3.288488e-03 4.870482e-01 -8.136134e-01 4.785465e-01 -8.139223e-01 3.013239e-02 2.006215e-03 2.892101e-02 -1.912161e-01 2.679365e-02 6.840232e-02 3.190447e-02 1.817622e-03 4.811632e-01 -8.184909e-01 2.628126e-02 6.956863e-02 3.073770e-02 -1.795422e-01
4.375000e+11 -1.240971e-01 1.485262e-01 6.650745e-02 -1.706890e-02 4.823704e-01 -8.131638e-01 3.348195e-02 2.241342e-03 6.609452e-02 -1.742990e-02 -1.109359e-01 1.429236e-01 3.363515e-02 2.873395e-03 4.790785e-01 -8.171852e-01 4.705174e-01 -8.173837e-01 3.035413e-02 1.616054e-03 2.736596e-02 -1.941226e-01 2.754282e-02 6.905134e-02 3.213638e-02 1.400472e-03 4.731099e-01 -8.220465e-01 2.703666e-02 7.024199e-02 2.928773e-02 -1.822935e-01
4.410000e+11 -1.235957e-01 1.523966e-01 6.676212e-02 -1.817292e-02 4.744098e-01 -8.166467e-01 3.372228e-02 1.812592e-03 6.634216e-02 -1.853091e-02 -1.104002e-01 1.465357e-01 3.388175e-02 2.451932e-03 4.710576e-01 -8.206668e-01 4.624390e-01 -8.207532e-01 3.056911e-02 1.220155e-03 2.575033e-02 -1.970227e-01 2.830732e-02 6.969298e-02 3.236103e-02 9.772668e-04 4.650055e-01 -8.255106e-01 2.780789e-02 7.090803e-02 2.778061e-02 -1.850391e-01
4.445000e+11 -1.230176e-01 1.562819e-01 6.699643e-02 -1.928719e-02 4.663992e-01 -8.200390e-01 3.395515e-02 1.377659e-03 6.656948e-02 -1.964205e-02 -1.097927e-01 1.501605e-01 3.412106e-02 2.024237e-03 4.629866e-01 -8.240569e-01 4.543126e-01 -8.240296e-01 3.077718e-02 8.186524e-04 2.407388e-02 -1.999151e-01 2.908712e-02 7.032684e-02 3.257829e-02 5.481486e-04 4.568511e-01 -8.288817e-01 2.859491e-02 7.156633e-02 2.621610e-02 -1.877777e-01
4.480000e+11 -1.223619e-01 1.601801e-01 6.721007e-02 -2.041129e-02 4.583397e-01 -8.233393e-01 3.418042e-02 9.366907e-04 6.677620e-02 -2.076289e-02 -1.091127e-01 1.537964e-01 3.435293e-02 1.590451e-03 4.548667e-01 -8.273541e-01 4.461391e-01 -8.272117e-01 3.097820e-02 4.116812e-04 2.233637e-02 -2.027983e-01 2.988216e-02 7.095252e-02 3.278798e-02 1.132641e-04 4.486478e-01 -8.321586e-01 2.939768e-02 7.221647e-02 2.459398e-02 -1.905078e-01
4.515000e+11 -1.216282e-01 1.640897e-01 6.740275e-02 -2.154478e-02 4.502326e-01 -8.265463e-01 3.439792e-02 4.898371e-04 6.696200e-02 -2.189299e-02 -1.083595e-01 1.574417e-01 3.457720e-02 1.150721e-03 4.466989e-01 -8.305571e-01 4.379199e-01 -8.302981e-01 3.117203e-02 -6.177744e-07 2.053764e-02 -2.056707e-01 3.069237e-02 7.156960e-02 3.298998e-02 -3.272357e-04 4.403968e-01 -8.353399e-01 3.021612e-02 7.285805e-02 2.291408e-02 -1.932281e-01
4.550000e+11 -1.208157e-01 1.680086e-01 6.757418e-02 -2.268721e-02 4.420789e-01 -8.296587e-01 3.460751e-02 3.725391e-05 6.712660e-02 -2.303190e-02 -1.075327e-01 1.610948e-01 3.479373e-02 7.051977e-04 4.384846e-01 -8.336646e-01 4.296561e-01 -8.332875e-01 3.135854e-02 -4.181000e-04 1.867754e-02 -2.085309e-01 3.151767e-02 7.217768e-02 3.318412e-02 -7.731954e-04 4.320993e-01 -8.384243e-01 3.105017e-02 7.349062e-02 2.117625e-02 -1.959371e-01
4.585000e+11 -1.199238e-01 1.719352e-01 6.772407e-02 -2.383812e-02 4.338798e-01 -8.326753e-01 3.480903e-02 -4.208989e-04 6.726973e-02 -2.417916e-02 -1.066316e-01 1.647540e-01 3.500236e-02 2.540374e-04 4.302247e-01 -8.366752e-01 4.213490e-01 -8.361788e-01 3.153758e-02 -8.406166e-04 1.675596e-02 -2.113774e-01 3.235799e-02 7.277635e-02 3.337027e-02 -1.224455e-03 4.237566e-01 -8.414104e-01 3.189974e-02 7.411379e-02 1.938040e-02 -1.986335e-01
4.620000e+11 -1.189519e-01 1.758676e-01 6.785217e-02 -2.499704e-02 4.256368e-01 -8.355947e-01 3.500235e-02 -8.844568e-04 6.739112e-02 -2.533431e-02 -1.056558e-01 1.684174e-01 3.520295e-02 -2.026002e-04 4.219208e-01 -8.395878e-01 4.129999e-01 -8.389707e-01 3.170902e-02 -1.268015e-03 1.477285e-02 -2.142087e-01 3.321320e-02 7.336519e-02 3.354829e-02 -1.680850e-03 4.153699e-01 -8.442971e-01 3.276472e-02 7.472712e-02 1.752646e-02 -2.013157e-01
4.655000e+11 -1.178997e-01 1.798039e-01 6.795820e-02 -2.616349e-02 4.173509e-01 -8.384157e-01 3.518732e-02 -1.353251e-03 6.749052e-02 -2.649687e-02 -1.046049e-01 1.720834e-01 3.539536e-02 -6.645505e-04 4.135740e-01 -8.424010e-01 4.046102e-01 -8.416619e-01 3.187274e-02 -1.700137e-03 1.272819e-02 -2.170231e-01 3.408320e-02 7.394381e-02 3.371804e-02 -2.142213e-03 4.069406e-01 -8.470830e-01 3.364502e-02 7.533019e-02 1.561441e-02 -2.039825e-01
4.690000e+11 -1.167666e-01 1.837421e-01 6.804193e-02 -2.733699e-02 4.090236e-01 -8.411371e-01 3.536380e-02 -1.827107e-03 6.756768e-02 -2.766634e-02 -1.034784e-01 1.757501e-01 3.557945e-02 -1.131645e-03 4.051858e-01 -8.451136e-01 3.961813e-01 -8.442512e-01 3.202861e-02 -2.136823e-03 1.062200e-02 -2.198193e-01 3.496787e-02 7.451180e-02 3.387939e-02 -2.608369e-03 3.984701e-01 -8.497669e-01 3.454049e-02 7.592257e-02 1.364426e-02 -2.066321e-01
4.725000e+11 -1.155522e-01 1.876804e-01 6.810312e-02 -2.851703e-02 4.006563e-01 -8.437575e-01 3.553166e-02 -2.305849e-03 6.762236e-02 -2.884224e-02 -1.022760e-01 1.794157e-01 3.575507e-02 -1.603709e-03 3.967576e-01 -8.477243e-01 3.877146e-01 -8.467375e-01 3.217651e-02 -2.577907e-03 8.454343e-03 -2.225955e-01 3.586706e-02 7.506873e-02 3.403220e-02 -3.079143e-03 3.899599e-01 -8.523475e-01 3.545102e-02 7.650386e-02 1.161608e-02 -2.092633e-01
4.760000e+11 -1.142562e-01 1.916168e-01 6.814154e-02 -2.970311e-02 3.922504e-01 -8.462759e-01 3.569076e-02 -2.789293e-03 6.765435e-02 -3.002406e-02 -1.009974e-01 1.830785e-01 3.592211e-02 -2.080566e-03 3.882908e-01 -8.502320e-01 3.792116e-01 -8.491195e-01 3.231631e-02 -3.023220e-03 6.225339e-03 -2.253502e-01 3.678063e-02 7.561420e-02 3.417636e-02 -3.554352e-03 3.814114e-01 -8.548237e-01 3.637643e-02 7.707362e-02 9.529947e-03 -2.118746e-01
4.795000e+11 -1.128784e-01 1.955494e-01 6.815698e-02 -3.089472e-02 3.838075e-01 -8.486909e-01 3.584098e-02 -3.277253e-03 6.766344e-02 -3.121129e-02 -9.964227e-02 1.867366e-01 3.608042e-02 -2.562034e-03 3.797869e-01 -8.526353e-01 3.706738e-01 -8.513962e-01 3.244791e-02 -3.472590e-03 3.935141e-03 -2.280819e-01 3.770840e-02 7.614782e-02 3.431174e-02 -4.033811e-03 3.728261e-01 -8.571942e-01 3.731658e-02 7.763144e-02 7.386015e-03 -2.144644e-01
4.830000e+11 -1.114183e-01 1.994761e-01 6.814925e-02 -3.209134e-02 3.753290e-01 -8.510015e-01 3.598220e-02 -3.769540e-03 6.764942e-02 -3.240340e-02 -9.821048e-02 1.903880e-01 3.622990e-02 -3.047926e-03 3.712475e-01 -8.549333e-01 3.621029e-01 -8.535664e-01 3.257118e-02 -3.925839e-03 1.583950e-03 -2.307890e-01 3.865021e-02 7.666916e-02 3.443823e-02 -4.517331e-03 3.642057e-01 -8.594578e-01 3.827128e-02 7.817689e-02 5.184464e-03 -2.170312e-01
4.865000e+11 -1.098759e-01 2.033950e-01 6.811815e-02 -3.329243e-02 3.668165e-01 -8.532065e-01 3.611429e-02 -4.265957e-03 6.761212e-02 -3.359988e-02 -9.670186e-02 1.940310e-01 3.637040e-02 -3.538053e-03 3.626742e-01 -8.571246e-01 3.535005e-01 -8.556290e-01 3.268604e-02 -4.382787e-03 -8.279885e-04 -2.334698e-01 3.960585e-02 7.717783e-02 3.455570e-02 -5.004717e-03 3.555518e-01 -8.616134e-01 3.924035e-02 7.870957e-02 2.925520e-03 -2.195737e-01
4.900000e+11 -1.082510e-01 2.073040e-01 6.806352e-02 -3.449746e-02 3.582716e-01 -8.553048e-01 3.623715e-02 -4.766307e-03 6.755137e-02 -3.480017e-02 -9.511628e-02 1.976637e-01 3.650183e-02 -4.032220e-03 3.540686e-01 -8.592082e-01 3.448682e-01 -8.575829e-01 3.279236e-02 -4.843249e-03 -3.300380e-03 -2.361229e-01 4.057514e-02 7.767344e-02 3.466406e-02 -5.495774e-03 3.468660e-01 -8.636599e-01 4.022358e-02 7.922906e-02 6.094527e-04 -2.220902e-01
4.935000e+11 -1.065435e-01 2.112011e-01 6.798519e-02 -3.570588e-02 3.496961e-01 -8.572952e-01 3.635066e-02 -5.270386e-03 6.746700e-02 -3.600375e-02 -9.345369e-02 2.012841e-01 3.662407e-02 -4.530229e-03 3.454324e-01 -8.611830e-01 3.362077e-01 -8.594272e-01 3.289005e-02 -5.307040e-03 -5.832883e-03 -2.387466e-01 4.155785e-02 7.815557e-02 3.476320e-02 -5.990300e-03 3.381501e-01 -8.655963e-01 4.122075e-02 7.973494e-02 -1.763424e-03 -2.245793e-01
4.970000e+11 -1.047534e-01 2.150843e-01 6.788302e-02 -3.691715e-02 3.410915e-01 -8.591767e-01 3.645472e-02 -5.777989e-03 6.735888e-02 -3.721005e-02 -9.171410e-02 2.048903e-01 3.673701e-02 -5.031878e-03 3.367674e-01 -8.630480e-01 3.275208e-01 -8.611607e-01 3.297902e-02 -5.773966e-03 -8.425112e-03 -2.413393e-01 4.255376e-02 7.862384e-02 3.485301e-02 -6.488089e-03 3.294058e-01 -8.674213e-01 4.223164e-02 8.022682e-02 -4.192751e-03 -2.270394e-01
5.005000e+11 -1.028808e-01 2.189515e-01 6.775687e-02 -3.813069e-02 3.324598e-01 -8.609484e-01 3.654922e-02 -6.288905e-03 6.722688e-02 -3.841853e-02 -8.989755e-02 2.084804e-01 3.684056e-02 -5.536961e-03 3.280753e-01 -8.648020e-01 3.188094e-01 -8.627826e-01 3.305918e-02 -6.243834e-03 -1.107663e-02 -2.438995e-01 4.356261e-02 7.907787e-02 3.493341e-02 -6.988934e-03 3.206349e-01 -8.691341e-01 4.325601e-02 8.070429e-02 -6.678125e-03 -2.294692e-01
5.040000e+11 -1.009256e-01 2.228006e-01 6.760664e-02 -3.934596e-02 3.238027e-01 -8.626092e-01 3.663407e-02 -6.802921e-03 6.707088e-02 -3.962862e-02 -8.800415e-02 2.120525e-01 3.693460e-02 -6.045269e-03 3.193579e-01 -8.664442e-01 3.100752e-01 -8.642918e-01 3.313044e-02 -6.716445e-03 -1.378695e-02 -2.464256e-01 4.458417e-02 7.951725e-02 3.500430e-02 -7.492623e-03 3.118393e-01 -8.707336e-01 4.429359e-02 8.116695e-02 -9.219098e-03 -2.318671e-01
5.075000e+11 -9.888814e-02 2.266295e-01 6.743222e-02 -4.056237e-02 3.151219e-01 -8.641581e-01 3.670919e-02 -7.319820e-03 6.689078e-02 -4.083975e-02 -8.603406e-02 2.156047e-01 3.701906e-02 -6.556589e-03 3.106171e-01 -8.679735e-01 3.013201e-01 -8.656876e-01 3.319272e-02 -7.191600e-03 -1.655555e-02 -2.489159e-01 4.561816e-02 7.994163e-02 3.506561e-02 -7.998941e-03 3.030209e-01 -8.722189e-01 4.534412e-02 8.161441e-02 -1.181517e-02 -2.342316e-01
5.110000e+11 -9.676852e-02 2.304363e-01 6.723352e-02 -4.177937e-02 3.064195e-01 -8.655943e-01 3.677449e-02 -7.839380e-03 6.668650e-02 -4.205134e-02 -8.398750e-02 2.191350e-01 3.709384e-02 -7.070705e-03 3.018549e-01 -8.693891e-01 2.925461e-01 -8.669689e-01 3.324595e-02 -7.669094e-03 -1.938185e-02 -2.513690e-01 4.666431e-02 8.035061e-02 3.511724e-02 -8.507671e-03 2.941815e-01 -8.735891e-01 4.640732e-02 8.204628e-02 -1.446582e-02 -2.365612e-01
5.145000e+11 -9.456704e-02 2.342188e-01 6.701047e-02 -4.299635e-02 2.976973e-01 -8.669168e-01 3.682989e-02 -8.361380e-03 6.645797e-02 -4.326284e-02 -8.186474e-02 2.226414e-01 3.715886e-02 -7.587398e-03 2.930731e-01 -8.706900e-01 2.837551e-01 -8.681351e-01 3.329005e-02 -8.148721e-03 -2.226520e-02 -2.537833e-01 4.772231e-02 8.074383e-02 3.515914e-02 -9.018590e-03 2.853233e-01 -8.748433e-01 4.748288e-02 8.246218e-02 -1.717044e-02 -2.388545e-01
5.180000e+11 -9.228402e-02 2.379749e-01 6.676302e-02 -4.421275e-02 2.889573e-01 -8.681248e-01 3.687531e-02 -8.885591e-03 6.620514e-02 -4.447364e-02 -7.966611e-02 2.261221e-01 3.721405e-02 -8.106445e-03 2.842737e-01 -8.718754e-01 2.749491e-01 -8.691854e-01 3.332497e-02 -8.630271e-03 -2.520495e-02 -2.561571e-01 4.879187e-02 8.112094e-02 3.519123e-02 -9.531475e-03 2.764482e-01 -8.759807e-01 4.857051e-02 8.286173e-02 -1.992840e-02 -2.411100e-01
5.215000e+11 -8.991985e-02 2.417025e-01 6.649113e-02 -4.542797e-02 2.802015e-01 -8.692176e-01 3.691070e-02 -9.411785e-03 6.592797e-02 -4.568316e-02 -7.739200e-02 2.295750e-01 3.725935e-02 -8.627621e-03 2.754588e-01 -8.729447e-01 2.661302e-01 -8.701189e-01 3.335063e-02 -9.113532e-03 -2.820035e-02 -2.584891e-01 4.987267e-02 8.148157e-02 3.521344e-02 -1.004610e-02 2.675582e-01 -8.770005e-01 4.966989e-02 8.324457e-02 -2.273904e-02 -2.433262e-01
5.250000e+11 -8.747497e-02 2.453996e-01 6.619478e-02 -4.664142e-02 2.714320e-01 -8.701944e-01 3.693598e-02 -9.939729e-03 6.562644e-02 -4.689083e-02 -7.504286e-02 2.329983e-01 3.729467e-02 -9.150698e-03 2.666305e-01 -8.738969e-01 2.573005e-01 -8.709351e-01 3.336699e-02 -9.598290e-03 -3.125064e-02 -2.607777e-01 5.096437e-02 8.182539e-02 3.522574e-02 -1.056223e-02 2.586554e-01 -8.779019e-01 5.078066e-02 8.361034e-02 -2.560162e-02 -2.455018e-01
5.285000e+11 -8.494991e-02 2.490641e-01 6.587396e-02 -4.785252e-02 2.626508e-01 -8.710545e-01 3.695111e-02 -1.046919e-02 6.530055e-02 -4.809603e-02 -7.261918e-02 2.363900e-01 3.731997e-02 -9.675445e-03 2.577907e-01 -8.747314e-01 2.484620e-01 -8.716332e-01 3.337401e-02 -1.008433e-02 -3.435500e-02 -2.630213e-01 5.206664e-02 8.215204e-02 3.522805e-02 -1.107965e-02 2.497420e-01 -8.786843e-01 5.190250e-02 8.395868e-02 -2.851537e-02 -2.476352e-01
5.320000e+11 -8.234523e-02 2.526940e-01 6.552867e-02 -4.906066e-02 2.538600e-01 -8.717972e-01 3.695603e-02 -1.099993e-02 6.495031e-02 -4.929819e-02 -7.012153e-02 2.397481e-01 3.733520e-02 -1.020163e-02 2.489417e-01 -8.754475e-01 2.396169e-01 -8.722128e-01 3.337163e-02 -1.057143e-02 -3.751255e-02 -2.652184e-01 5.317913e-02 8.246120e-02 3.522035e-02 -1.159810e-02 2.408202e-01 -8.793471e-01 5.303505e-02 8.428925e-02 -3.147949e-02 -2.497252e-01
5.355000e+11 -7.966158e-02 2.562871e-01 6.515896e-02 -5.026524e-02 2.450618e-01 -8.724220e-01 3.695070e-02 -1.153171e-02 6.457575e-02 -5.049670e-02 -6.755052e-02 2.430709e-01 3.734031e-02 -1.072902e-02 2.400857e-01 -8.760448e-01 2.307674e-01 -8.726732e-01 3.335982e-02 -1.105937e-02 -4.072237e-02 -2.673677e-01 5.430146e-02 8.275255e-02 3.520260e-02 -1.211737e-02 2.318921e-01 -8.798897e-01 5.417792e-02 8.460171e-02 -3.449312e-02 -2.517703e-01
5.390000e+11 -7.689964e-02 2.598414e-01 6.476486e-02 -5.146567e-02 2.362583e-01 -8.729283e-01 3.693509e-02 -1.206429e-02 6.417692e-02 -5.169098e-02 -6.490684e-02 2.463563e-01 3.733525e-02 -1.125737e-02 2.312248e-01 -8.765226e-01 2.219157e-01 -8.730141e-01 3.333855e-02 -1.154793e-02 -4.398349e-02 -2.694676e-01 5.543327e-02 8.302577e-02 3.517476e-02 -1.263721e-02 2.229599e-01 -8.803115e-01 5.533075e-02 8.489575e-02 -3.755534e-02 -2.537690e-01
5.425000e+11 -7.406018e-02 2.633550e-01 6.434644e-02 -5.266135e-02 2.274519e-01 -8.733156e-01 3.690917e-02 -1.259742e-02 6.375388e-02 -5.288042e-02 -6.219121e-02 2.496025e-01 3.732000e-02 -1.178645e-02 2.223613e-01 -8.768804e-01 2.130640e-01 -8.732349e-01 3.330780e-02 -1.203689e-02 -4.729491e-02 -2.715168e-01 5.657416e-02 8.328057e-02 3.513681e-02 -1.315738e-02 2.140260e-01 -8.806121e-01 5.649313e-02 8.517103e-02 -4.066520e-02 -2.557202e-01
5.460000e+11 -7.114402e-02 2.668258e-01 6.390378e-02 -5.385168e-02 2.186446e-01 -8.735835e-01 3.687291e-02 -1.313087e-02 6.330671e-02 -5.406442e-02 -5.940444e-02 2.528076e-01 3.729454e-02 -1.231601e-02 2.134973e-01 -8.771178e-01 2.042146e-01 -8.733354e-01 3.326755e-02 -1.252601e-02 -5.065556e-02 -2.735138e-01 5.772373e-02 8.351664e-02 3.508873e-02 -1.367765e-02 2.050926e-01 -8.807911e-01 5.766466e-02 8.542727e-02 -4.382173e-02 -2.576225e-01
5.495000e+11 -6.815205e-02 2.702517e-01 6.343696e-02 -5.503607e-02 2.098388e-01 -8.737316e-01 3.682631e-02 -1.366438e-02 6.283552e-02 -5.524240e-02 -5.654737e-02 2.559697e-01 3.725883e-02 -1.284582e-02 2.046353e-01 -8.772345e-01 1.953698e-01 -8.733151e-01 3.321778e-02 -1.301509e-02 -5.406433e-02 -2.754572e-01 5.888158e-02 8.373371e-02 3.503052e-02 -1.419777e-02 1.961620e-01 -8.808481e-01 5.884493e-02 8.566416e-02 -4.702387e-02 -2.594745e-01
5.530000e+11 -6.508521e-02 2.736309e-01 6.294612e-02 -5.621390e-02 2.010368e-01 -8.737596e-01 3.676934e-02 -1.419772e-02 6.234041e-02 -5.641375e-02 -5.362091e-02 2.590871e-01 3.721287e-02 -1.337562e-02 1.957776e-01 -8.772301e-01 1.865318e-01 -8.731740e-01 3.315849e-02 -1.350387e-02 -5.752008e-02 -2.773458e-01 6.004729e-02 8.393150e-02 3.496216e-02 -1.471750e-02 1.872366e-01 -8.807827e-01 6.003350e-02 8.588142e-02 -5.027056e-02 -2.612750e-01
5.565000e+11 -6.194451e-02 2.769613e-01 6.243137e-02 -5.738460e-02 1.922408e-01 -8.736672e-01 3.670202e-02 -1.473063e-02 6.182152e-02 -5.757789e-02 -5.062603e-02 2.621579e-01 3.715666e-02 -1.390519e-02 1.869263e-01 -8.771044e-01 1.777031e-01 -8.729117e-01 3.308969e-02 -1.399215e-02 -6.102161e-02 -2.791782e-01 6.122042e-02 8.410976e-02 3.488367e-02 -1.523659e-02 1.783187e-01 -8.805949e-01 6.122994e-02 8.607878e-02 -5.356066e-02 -2.630227e-01
5.600000e+11 -5.873101e-02 2.802411e-01 6.189288e-02 -5.854757e-02 1.834533e-01 -8.734543e-01 3.662433e-02 -1.526286e-02 6.127901e-02 -5.873423e-02 -4.756375e-02 2.651802e-01 3.709019e-02 -1.443426e-02 1.780840e-01 -8.768572e-01 1.688860e-01 -8.725281e-01 3.301137e-02 -1.447969e-02 -6.456767e-02 -2.809531e-01 6.240054e-02 8.426825e-02 3.479505e-02 -1.575481e-02 1.694108e-01 -8.802844e-01 6.243381e-02 8.625598e-02 -5.689303e-02 -2.647165e-01
5.635000e+11 -5.544585e-02 2.834683e-01 6.133080e-02 -5.970222e-02 1.746766e-01 -8.731207e-01 3.653631e-02 -1.579417e-02 6.071304e-02 -5.988218e-02 -4.443514e-02 2.681524e-01 3.701347e-02 -1.496260e-02 1.692530e-01 -8.764883e-01 1.600829e-01 -8.720233e-01 3.292356e-02 -1.496626e-02 -6.815700e-02 -2.826692e-01 6.358720e-02 8.440671e-02 3.469632e-02 -1.627191e-02 1.605151e-01 -8.798511e-01 6.364465e-02 8.641278e-02 -6.026645e-02 -2.663552e-01
5.670000e+11 -5.209021e-02 2.866411e-01 6.074532e-02 -6.084796e-02 1.659130e-01 -8.726663e-01 3.643796e-02 -1.632431e-02 6.012380e-02 -6.102115e-02 -4.124134e-02 2.710728e-01 3.692652e-02 -1.548997e-02 1.604357e-01 -8.759978e-01 1.512960e-01 -8.713971e-01 3.282627e-02 -1.545164e-02 -7.178825e-02 -2.843254e-01 6.477995e-02 8.452495e-02 3.458750e-02 -1.678764e-02 1.516342e-01 -8.792950e-01 6.486198e-02 8.654893e-02 -6.367968e-02 -2.679375e-01
5.705000e+11 -4.866534e-02 2.897577e-01 6.013665e-02 -6.198421e-02 1.571649e-01 -8.720911e-01 3.632931e-02 -1.685304e-02 5.951149e-02 -6.215057e-02 -3.798354e-02 2.739395e-01 3.682936e-02 -1.601610e-02 1.516345e-01 -8.753856e-01 1.425280e-01 -8.706497e-01 3.271953e-02 -1.593559e-02 -7.546008e-02 -2.859205e-01 6.597831e-02 8.462273e-02 3.446862e-02 -1.730177e-02 1.427705e-01 -8.786161e-01 6.608535e-02 8.666423e-02 -6.713146e-02 -2.694624e-01
5.740000e+11 -4.517254e-02 2.928162e-01 5.950500e-02 -6.311039e-02 1.484348e-01 -8.713952e-01 3.621040e-02 -1.738009e-02 5.887633e-02 -6.326986e-02 -3.466297e-02 2.767509e-01 3.672201e-02 -1.654077e-02 1.428518e-01 -8.746518e-01 1.337810e-01 -8.697813e-01 3.260338e-02 -1.641790e-02 -7.917108e-02 -2.874533e-01 6.718182e-02 8.469988e-02 3.433973e-02 -1.781404e-02 1.339264e-01 -8.778145e-01 6.731425e-02 8.675847e-02 -7.062045e-02 -2.709289e-01
5.775000e+11 -4.161316e-02 2.958148e-01 5.885061e-02 -6.422595e-02 1.397250e-01 -8.705788e-01 3.608126e-02 -1.790523e-02 5.821857e-02 -6.437847e-02 -3.128093e-02 2.795055e-01 3.660452e-02 -1.706373e-02 1.340900e-01 -8.737966e-01 1.250577e-01 -8.687919e-01 3.247786e-02 -1.689832e-02 -8.291980e-02 -2.889228e-01 6.838999e-02 8.475620e-02 3.420086e-02 -1.832423e-02 1.251044e-01 -8.768904e-01 6.854822e-02 8.683144e-02 -7.414530e-02 -2.723358e-01
5.810000e+11 -3.798863e-02 2.987519e-01 5.817374e-02 -6.533030e-02 1.310380e-01 -8.696420e-01 3.594195e-02 -1.842821e-02 5.753845e-02 -6.547582e-02 -2.783878e-02 2.822015e-01 3.647693e-02 -1.758473e-02 1.253517e-01 -8.728200e-01 1.163603e-01 -8.676819e-01 3.234300e-02 -1.737664e-02 -8.670477e-02 -2.903278e-01 6.960234e-02 8.479153e-02 3.405207e-02 -1.883208e-02 1.163069e-01 -8.758440e-01 6.978674e-02 8.688298e-02 -7.770464e-02 -2.736822e-01
5.845000e+11 -3.430042e-02 3.016257e-01 5.747465e-02 -6.642290e-02 1.223761e-01 -8.685851e-01 3.579253e-02 -1.894878e-02 5.683625e-02 -6.656136e-02 -2.433789e-02 2.848375e-01 3.633929e-02 -1.810352e-02 1.166391e-01 -8.717225e-01 1.076914e-01 -8.664517e-01 3.219887e-02 -1.785263e-02 -9.052448e-02 -2.916674e-01 7.081838e-02 8.480573e-02 3.389342e-02 -1.933736e-02 1.075364e-01 -8.746755e-01 7.102931e-02 8.691293e-02 -8.129703e-02 -2.749671e-01
5.880000e+11 -3.055003e-02 3.044346e-01 5.675364e-02 -6.750320e-02 1.137419e-01 -8.674084e-01 3.563304e-02 -1.946670e-02 5.611226e-02 -6.763456e-02 -2.077971e-02 2.874119e-01 3.619166e-02 -1.861988e-02 1.079549e-01 -8.705044e-01 9.905330e-02 -8.651016e-01 3.204553e-02 -1.832607e-02 -9.437738e-02 -2.929406e-01 7.203760e-02 8.479864e-02 3.372498e-02 -1.983983e-02 9.879544e-02 -8.733854e-01 7.227543e-02 8.692113e-02 -8.492103e-02 -2.761896e-01
5.915000e+11 -2.673906e-02 3.071770e-01 5.601101e-02 -6.857065e-02 1.051377e-01 -8.661123e-01 3.546357e-02 -1.998174e-02 5.536679e-02 -6.869486e-02 -1.716575e-02 2.899232e-01 3.603409e-02 -1.913355e-02 9.930133e-02 -8.691661e-01 9.044848e-02 -8.636321e-01 3.188304e-02 -1.879673e-02 -9.826189e-02 -2.941465e-01 7.325951e-02 8.477015e-02 3.354681e-02 -2.033926e-02 9.008639e-02 -8.719742e-01 7.352457e-02 8.690746e-02 -8.857515e-02 -2.773487e-01
5.950000e+11 -2.286912e-02 3.098514e-01 5.524708e-02 -6.962473e-02 9.656598e-02 -8.646973e-01 3.528419e-02 -2.049364e-02 5.460015e-02 -6.974174e-02 -1.349752e-02 2.923700e-01 3.586667e-02 -1.964430e-02 9.068096e-02 -8.677080e-01 8.187937e-02 -8.620438e-01 3.171147e-02 -1.926440e-02 -1.021764e-01 -2.952842e-01 7.448358e-02 8.472015e-02 3.335900e-02 -2.083541e-02 8.141174e-02 -8.704423e-01 7.477623e-02 8.687179e-02 -9.225788e-02 -2.784438e-01
5.985000e+11 -1.894188e-02 3.124562e-01 5.446219e-02 -7.066490e-02 8.802914e-02 -8.631640e-01 3.509498e-02 -2.100217e-02 5.381269e-02 -7.077468e-02 -9.776627e-03 2.947510e-01 3.568947e-02 -2.015189e-02 8.209620e-02 -8.661308e-01 7.334836e-02 -8.603372e-01 3.153092e-02 -1.972885e-02 -1.061193e-01 -2.963529e-01 7.570932e-02 8.464856e-02 3.316164e-02 -2.132804e-02 7.277397e-02 -8.687903e-01 7.602986e-02 8.681403e-02 -9.596769e-02 -2.794739e-01
6.020000e+11 -1.495906e-02 3.149900e-01 5.365669e-02 -7.169066e-02 7.952959e-02 -8.615129e-01 3.489603e-02 -2.150710e-02 5.300475e-02 -7.179317e-02 -6.004686e-03 2.970646e-01 3.550258e-02 -2.065610e-02 7.354946e-02 -8.644350e-01 6.485787e-02 -8.585132e-01 3.134145e-02 -2.018987e-02 -1.100888e-01 -2.973518e-01 7.693619e-02 8.455528e-02 3.295482e-02 -2.181693e-02 6.417552e-02 -8.670189e-01 7.728494e-02 8.673409e-02 -9.970299e-02 -2.804384e-01
6.055000e+11 -1.092243e-02 3.174514e-01 5.283095e-02 -7.270151e-02 7.106975e-02 -8.597448e-01 3.468745e-02 -2.200819e-02 5.217671e-02 -7.279672e-02 -2.183364e-03 2.993098e-01 3.530609e-02 -2.115668e-02 6.504319e-02 -8.626214e-01 5.641029e-02 -8.565723e-01 3.114317e-02 -2.064726e-02 -1.140834e-01 -2.982801e-01 7.816368e-02 8.444027e-02 3.273864e-02 -2.230185e-02 5.561884e-02 -8.651288e-01 7.854094e-02 8.663190e-02 -1.034622e-01 -2.813366e-01
6.090000e+11 -6.833789e-03 3.198390e-01 5.198534e-02 -7.369695e-02 6.265199e-02 -8.578604e-01 3.446934e-02 -2.250521e-02 5.132895e-02 -7.378482e-02 1.685629e-03 3.014852e-01 3.510010e-02 -2.165341e-02 5.657978e-02 -8.606908e-01 4.800801e-02 -8.545156e-01 3.093618e-02 -2.110079e-02 -1.181013e-01 -2.991372e-01 7.939128e-02 8.430347e-02 3.251321e-02 -2.278259e-02 4.710634e-02 -8.631208e-01 7.979733e-02 8.650741e-02 -1.072437e-01 -2.821678e-01
6.125000e+11 -2.694986e-03 3.221516e-01 5.112028e-02 -7.467650e-02 5.427870e-02 -8.558605e-01 3.424180e-02 -2.299794e-02 5.046187e-02 -7.475702e-02 5.600550e-03 3.035896e-01 3.488471e-02 -2.214606e-02 4.816162e-02 -8.586439e-01 3.965337e-02 -8.523438e-01 3.072057e-02 -2.155026e-02 -1.221407e-01 -2.999225e-01 8.061844e-02 8.414486e-02 3.227864e-02 -2.325891e-02 3.864043e-02 -8.609957e-01 8.105356e-02 8.636059e-02 -1.110459e-01 -2.829314e-01
6.160000e+11 1.492092e-03 3.243878e-01 5.023617e-02 -7.563971e-02 4.595223e-02 -8.537461e-01 3.400496e-02 -2.348615e-02 4.957588e-02 -7.571284e-02 9.559618e-03 3.056220e-01 3.466004e-02 -2.263442e-02 3.979108e-02 -8.564817e-01 3.134872e-02 -8.500579e-01 3.049647e-02 -2.199546e-02 -1.262000e-01 -3.006354e-01 8.184465e-02 8.396444e-02 3.203505e-02 -2.373060e-02 3.022351e-02 -8.587546e-01 8.230909e-02 8.619142e-02 -1.148671e-01 -2.836268e-01
6.195000e+11 5.725521e-03 3.265466e-01 4.933344e-02 -7.658610e-02 3.767491e-02 -8.515180e-01 3.375895e-02 -2.396963e-02 4.867140e-02 -7.665183e-02 1.356102e-02 3.075812e-01 3.442621e-02 -2.311826e-02 3.147053e-02 -8.542052e-01 2.309638e-02 -8.476590e-01 3.026398e-02 -2.243621e-02 -1.302772e-01 -3.012754e-01 8.306938e-02 8.376219e-02 3.178257e-02 -2.419745e-02 2.185795e-02 -8.563984e-01 8.356340e-02 8.599989e-02 -1.187057e-01 -2.842536e-01
6.230000e+11 1.000334e-02 3.286268e-01 4.841252e-02 -7.751525e-02 2.944906e-02 -8.491773e-01 3.350388e-02 -2.444816e-02 4.774888e-02 -7.757356e-02 1.760290e-02 3.094661e-01 3.418335e-02 -2.359737e-02 2.320228e-02 -8.518154e-01 1.489864e-02 -8.451482e-01 3.002324e-02 -2.287229e-02 -1.343707e-01 -3.018420e-01 8.429210e-02 8.353814e-02 3.152133e-02 -2.465925e-02 1.354608e-02 -8.539283e-01 8.481593e-02 8.578602e-02 -1.225599e-01 -2.848114e-01
6.265000e+11 1.432357e-02 3.306273e-01 4.747387e-02 -7.842672e-02 2.127697e-02 -8.467251e-01 3.323990e-02 -2.492152e-02 4.680877e-02 -7.847760e-02 2.168340e-02 3.112760e-01 3.393158e-02 -2.407154e-02 1.498865e-02 -8.493135e-01 6.757773e-03 -8.425266e-01 2.977436e-02 -2.330352e-02 -1.384787e-01 -3.023349e-01 8.551229e-02 8.329234e-02 3.125148e-02 -2.511580e-02 5.290225e-03 -8.513453e-01 8.606614e-02 8.554984e-02 -1.264281e-01 -2.852997e-01
6.300000e+11 1.868418e-02 3.325472e-01 4.651795e-02 -7.932011e-02 1.316089e-02 -8.441626e-01 3.296716e-02 -2.538952e-02 4.585153e-02 -7.936355e-02 2.580060e-02 3.130097e-01 3.367104e-02 -2.454055e-02 6.831889e-03 -8.467006e-01 -1.323999e-03 -8.397955e-01 2.951749e-02 -2.372970e-02 -1.425992e-01 -3.027536e-01 8.672942e-02 8.302483e-02 3.097315e-02 -2.556690e-02 -2.907329e-03 -8.486506e-01 8.731350e-02 8.529140e-02 -1.303086e-01 -2.857183e-01
6.335000e+11 2.308312e-02 3.343855e-01 4.554525e-02 -8.019502e-02 5.103046e-03 -8.414910e-01 3.268580e-02 -2.585194e-02 4.487763e-02 -8.023100e-02 2.995257e-02 3.146666e-01 3.340188e-02 -2.500422e-02 -1.265745e-03 -8.439779e-01 -9.344471e-03 -8.369562e-01 2.925276e-02 -2.415066e-02 -1.467306e-01 -3.030979e-01 8.794297e-02 8.273567e-02 3.068650e-02 -2.601234e-02 -1.104433e-02 -8.458457e-01 8.855748e-02 8.501077e-02 -1.341996e-01 -2.860667e-01
6.370000e+11 2.751832e-02 3.361414e-01 4.455623e-02 -8.105105e-02 -2.894359e-03 -8.387116e-01 3.239598e-02 -2.630859e-02 4.388758e-02 -8.107958e-02 3.413736e-02 3.162458e-01 3.312425e-02 -2.546234e-02 -9.302050e-03 -8.411468e-01 -1.730148e-02 -8.340101e-01 2.898032e-02 -2.456621e-02 -1.508709e-01 -3.033675e-01 8.915242e-02 8.242497e-02 3.039169e-02 -2.645194e-02 -1.911856e-02 -8.429317e-01 8.979752e-02 8.470801e-02 -1.380995e-01 -2.863449e-01
6.405000e+11 3.198767e-02 3.378140e-01 4.355141e-02 -8.188785e-02 -1.082917e-02 -8.358258e-01 3.209785e-02 -2.675929e-02 4.288185e-02 -8.190892e-02 3.835301e-02 3.177465e-01 3.283830e-02 -2.591471e-02 -1.727485e-02 -8.382087e-01 -2.519289e-02 -8.309585e-01 2.870031e-02 -2.497618e-02 -1.550184e-01 -3.035623e-01 9.035724e-02 8.209281e-02 3.008887e-02 -2.688552e-02 -2.712783e-02 -8.399102e-01 9.103311e-02 8.438324e-02 -1.420064e-01 -2.865526e-01
6.440000e+11 3.648907e-02 3.394026e-01 4.253129e-02 -8.270507e-02 -1.869927e-02 -8.328350e-01 3.179159e-02 -2.720383e-02 4.186096e-02 -8.271869e-02 4.259751e-02 3.191681e-01 3.254419e-02 -2.636116e-02 -2.518202e-02 -8.351651e-01 -3.301661e-02 -8.278030e-01 2.841290e-02 -2.538040e-02 -1.591712e-01 -3.036821e-01 9.155693e-02 8.173932e-02 2.977821e-02 -2.731289e-02 -3.507001e-02 -8.367826e-01 9.226371e-02 8.403656e-02 -1.459187e-01 -2.866897e-01
6.475000e+11 4.102038e-02 3.409066e-01 4.149639e-02 -8.350236e-02 -2.650257e-02 -8.297406e-01 3.147736e-02 -2.764205e-02 4.082542e-02 -8.350853e-02 4.686886e-02 3.205101e-01 3.224209e-02 -2.680149e-02 -3.302147e-02 -8.320173e-01 -4.077061e-02 -8.245451e-01 2.811825e-02 -2.577870e-02 -1.633274e-01 -3.037269e-01 9.275098e-02 8.136463e-02 2.945988e-02 -2.773389e-02 -4.294299e-02 -8.335504e-01 9.348881e-02 8.366811e-02 -1.498346e-01 -2.867561e-01
6.510000e+11 4.557943e-02 3.423253e-01 4.044723e-02 -8.427942e-02 -3.423704e-02 -8.265443e-01 3.115535e-02 -2.807376e-02 3.977577e-02 -8.427815e-02 5.116503e-02 3.217719e-01 3.193217e-02 -2.723554e-02 -4.079115e-02 -8.287670e-01 -4.845289e-02 -8.211865e-01 2.781651e-02 -2.617092e-02 -1.674852e-01 -3.036967e-01 9.393887e-02 8.096889e-02 2.913407e-02 -2.814833e-02 -5.074472e-02 -8.302152e-01 9.470787e-02 8.327803e-02 -1.537524e-01 -2.867518e-01
6.545000e+11 5.016408e-02 3.436583e-01 3.938436e-02 -8.503593e-02 -4.190070e-02 -8.232475e-01 3.082572e-02 -2.849879e-02 3.871254e-02 -8.502724e-02 5.548399e-02 3.229529e-01 3.161461e-02 -2.766313e-02 -4.848905e-02 -8.254159e-01 -5.606148e-02 -8.177287e-01 2.750785e-02 -2.655691e-02 -1.716428e-01 -3.035916e-01 9.512011e-02 8.055226e-02 2.880095e-02 -2.855606e-02 -5.847319e-02 -8.267788e-01 9.592039e-02 8.286649e-02 -1.576704e-01 -2.866769e-01
6.580000e+11 5.477213e-02 3.449050e-01 3.830830e-02 -8.577162e-02 -4.949158e-02 -8.198520e-01 3.048867e-02 -2.891698e-02 3.763625e-02 -8.575551e-02 5.982370e-02 3.240529e-01 3.128958e-02 -2.808409e-02 -5.611323e-02 -8.219655e-01 -6.359448e-02 -8.141736e-01 2.719246e-02 -2.693652e-02 -1.757983e-01 -3.034115e-01 9.629421e-02 8.011493e-02 2.846070e-02 -2.895691e-02 -6.612645e-02 -8.232427e-01 9.712585e-02 8.243366e-02 -1.615868e-01 -2.865314e-01
6.615000e+11 5.940141e-02 3.460650e-01 3.721961e-02 -8.648622e-02 -5.700781e-02 -8.163595e-01 3.014439e-02 -2.932818e-02 3.654748e-02 -8.646271e-02 6.418210e-02 3.250714e-01 3.095726e-02 -2.849827e-02 -6.366178e-02 -8.184176e-01 -7.105005e-02 -8.105228e-01 2.687050e-02 -2.730960e-02 -1.799500e-01 -3.031567e-01 9.746068e-02 7.965708e-02 2.811353e-02 -2.935075e-02 -7.370257e-02 -8.196088e-01 9.832375e-02 8.197974e-02 -1.654999e-01 -2.863155e-01
6.650000e+11 6.404972e-02 3.471381e-01 3.611885e-02 -8.717947e-02 -6.444753e-02 -8.127717e-01 2.979307e-02 -2.973222e-02 3.544676e-02 -8.714859e-02 6.855715e-02 3.260082e-01 3.061786e-02 -2.890551e-02 -7.113284e-02 -8.147740e-01 -7.842638e-02 -8.067782e-01 2.654215e-02 -2.767602e-02 -1.840960e-01 -3.028275e-01 9.861903e-02 7.917892e-02 2.775961e-02 -2.973742e-02 -8.119971e-02 -8.158789e-01 9.951361e-02 8.150493e-02 -1.694081e-01 -2.860294e-01
6.685000e+11 6.871487e-02 3.481239e-01 3.500658e-02 -8.785116e-02 -7.180895e-02 -8.090905e-01 2.943491e-02 -3.012897e-02 3.433466e-02 -8.781293e-02 7.294679e-02 3.268631e-01 3.027156e-02 -2.930567e-02 -7.852462e-02 -8.110366e-01 -8.572172e-02 -8.029418e-01 2.620760e-02 -2.803565e-02 -1.882345e-01 -3.024240e-01 9.976879e-02 7.868069e-02 2.739915e-02 -3.011678e-02 -8.861607e-02 -8.120549e-01 1.006949e-01 8.100945e-02 -1.733095e-01 -2.856733e-01
6.720000e+11 7.339467e-02 3.490223e-01 3.388335e-02 -8.850105e-02 -7.909034e-02 -8.053177e-01 2.907011e-02 -3.051828e-02 3.321174e-02 -8.845550e-02 7.734895e-02 3.276359e-01 2.991856e-02 -2.969860e-02 -8.583538e-02 -8.072071e-01 -9.293438e-02 -7.990153e-01 2.586704e-02 -2.838836e-02 -1.923637e-01 -3.019467e-01 1.009095e-01 7.816261e-02 2.703235e-02 -3.048871e-02 -9.594990e-02 -8.081387e-01 1.018672e-01 8.049355e-02 -1.772026e-01 -2.852476e-01
6.755000e+11 7.808694e-02 3.498332e-01 3.274975e-02 -8.912896e-02 -8.629002e-02 -8.014552e-01 2.869888e-02 -3.090003e-02 3.207858e-02 -8.907611e-02 8.176159e-02 3.283264e-01 2.955905e-02 -3.008417e-02 -9.306342e-02 -8.032877e-01 -1.000627e-01 -7.950008e-01 2.552065e-02 -2.873403e-02 -1.964818e-01 -3.013958e-01 1.020407e-01 7.762494e-02 2.665941e-02 -3.085307e-02 -1.031995e-01 -8.041322e-01 1.030300e-01 7.995748e-02 -1.810857e-01 -2.847525e-01
6.790000e+11 8.278947e-02 3.505564e-01 3.160634e-02 -8.973471e-02 -9.340636e-02 -7.975049e-01 2.832141e-02 -3.127408e-02 3.093574e-02 -8.967460e-02 8.618265e-02 3.289348e-01 2.919324e-02 -3.046226e-02 -1.002071e-01 -7.992801e-01 -1.071052e-01 -7.909002e-01 2.516863e-02 -2.907254e-02 -2.005872e-01 -3.007719e-01 1.031619e-01 7.706794e-02 2.628054e-02 -3.120974e-02 -1.103633e-01 -8.000375e-01 1.041829e-01 7.940150e-02 -1.849571e-01 -2.841885e-01
6.825000e+11 8.750009e-02 3.511921e-01 3.045370e-02 -9.031814e-02 -1.004378e-01 -7.934690e-01 2.793793e-02 -3.164032e-02 2.978380e-02 -9.025081e-02 9.061011e-02 3.294610e-01 2.882134e-02 -3.083273e-02 -1.072649e-01 -7.951865e-01 -1.140603e-01 -7.867157e-01 2.481117e-02 -2.940380e-02 -2.046780e-01 -3.000753e-01 1.042728e-01 7.649189e-02 2.589594e-02 -3.155863e-02 -1.174397e-01 -7.958565e-01 1.053253e-01 7.882589e-02 -1.888151e-01 -2.835561e-01
6.860000e+11 9.221664e-02 3.517402e-01 2.929242e-02 -9.087910e-02 -1.073829e-01 -7.893493e-01 2.754864e-02 -3.199863e-02 2.862333e-02 -9.080459e-02 9.504192e-02 3.299052e-01 2.844355e-02 -3.119548e-02 -1.142353e-01 -7.910089e-01 -1.209265e-01 -7.824492e-01 2.444847e-02 -2.972769e-02 -2.087526e-01 -2.993068e-01 1.053728e-01 7.589708e-02 2.550584e-02 -3.189961e-02 -1.244271e-01 -7.915915e-01 1.064570e-01 7.823094e-02 -1.926582e-01 -2.828557e-01
6.895000e+11 9.693695e-02 3.522009e-01 2.812306e-02 -9.141748e-02 -1.142401e-01 -7.851480e-01 2.715377e-02 -3.234892e-02 2.745492e-02 -9.133582e-02 9.947607e-02 3.302674e-01 2.806008e-02 -3.155040e-02 -1.211169e-01 -7.867494e-01 -1.277025e-01 -7.781030e-01 2.408074e-02 -3.004413e-02 -2.128093e-01 -2.984667e-01 1.064616e-01 7.528381e-02 2.511044e-02 -3.223259e-02 -1.313242e-01 -7.872445e-01 1.075773e-01 7.761696e-02 -1.964847e-01 -2.820880e-01
6.930000e+11 1.016589e-01 3.525745e-01 2.694621e-02 -9.193317e-02 -1.210081e-01 -7.808672e-01 2.675352e-02 -3.269107e-02 2.627914e-02 -9.184441e-02 1.039106e-01 3.305479e-01 2.767116e-02 -3.189739e-02 -1.279082e-01 -7.824101e-01 -1.343870e-01 -7.736791e-01 2.370816e-02 -3.035303e-02 -2.168463e-01 -2.975559e-01 1.075388e-01 7.465239e-02 2.470996e-02 -3.255748e-02 -1.381296e-01 -7.828177e-01 1.086859e-01 7.698426e-02 -2.002931e-01 -2.812533e-01
6.965000e+11 1.063803e-01 3.528612e-01 2.576246e-02 -9.242609e-02 -1.276855e-01 -7.765090e-01 2.634812e-02 -3.302501e-02 2.509658e-02 -9.233026e-02 1.083434e-01 3.307471e-01 2.727698e-02 -3.223635e-02 -1.346080e-01 -7.779932e-01 -1.409786e-01 -7.691798e-01 2.333095e-02 -3.065430e-02 -2.208621e-01 -2.965749e-01 1.086039e-01 7.400315e-02 2.430461e-02 -3.287419e-02 -1.448419e-01 -7.783133e-01 1.097824e-01 7.633316e-02 -2.040819e-01 -2.803526e-01
7.000000e+11 1.110991e-01 3.530613e-01 2.457238e-02 -9.289615e-02 -1.342712e-01 -7.720755e-01 2.593779e-02 -3.335064e-02 2.390780e-02 -9.279332e-02 1.127726e-01 3.308651e-01 2.687777e-02 -3.256719e-02 -1.412149e-01 -7.735008e-01 -1.474763e-01 -7.646072e-01 2.294931e-02 -3.094787e-02 -2.248550e-01 -2.955246e-01 1.096565e-01 7.333642e-02 2.389462e-02 -3.318264e-02 -1.514600e-01 -7.737334e-01 1.108665e-01 7.566402e-02 -2.078495e-01 -2.793863e-01
