#   Hz   S  RI   R   50
!
0.000000e+00 4.668067e-03 0.000000e+00 6.458885e-04 0.000000e+00 9.948786e-01 0.000000e+00 -5.721034e-04 0.000000e+00 6.451964e-04 0.000000e+00 4.677758e-03 0.000000e+00 -5.758896e-04 0.000000e+00 9.948280e-01 0.000000e+00 9.948840e-01 0.000000e+00 -5.687819e-04 0.000000e+00 4.648004e-03 0.000000e+00 6.725557e-04 0.000000e+00 -5.678983e-04 0.000000e+00 9.948519e-01 0.000000e+00 6.618792e-04 0.000000e+00 4.623915e-03 0.000000e+00
8.750000e+08 4.668779e-03 -4.445615e-05 6.466779e-04 1.372768e-04 9.948739e-01 -2.102404e-03 -5.722404e-04 3.207295e-05 6.459936e-04 1.374826e-04 4.678596e-03 -2.284007e-05 -5.760421e-04 2.925490e-05 9.948232e-01 -2.107772e-03 9.948793e-01 -2.076150e-03 -5.688795e-04 3.830409e-05 4.650550e-03 -3.113534e-05 6.728732e-04 1.498286e-04 -5.680112e-04 3.632607e-05 9.948470e-01 -2.096688e-03 6.622225e-04 1.490452e-04 4.626546e-03 -4.667743e-06
1.750000e+09 4.670908e-03 -8.911995e-05 6.490448e-04 2.745105e-04 9.948596e-01 -4.204427e-03 -5.726506e-04 6.417035e-05 6.483834e-04 2.749203e-04 4.681102e-03 -4.589404e-05 -5.764990e-04 5.853543e-05 9.948087e-01 -4.215145e-03 9.948653e-01 -4.151924e-03 -5.691715e-04 7.662852e-05 4.658179e-03 -6.250315e-05 6.738243e-04 2.996220e-04 -5.683493e-04 7.267453e-05 9.948321e-01 -4.192945e-03 6.632507e-04 2.980507e-04 4.634429e-03 -9.584838e-06
2.625000e+09 4.674430e-03 -1.341976e-04 6.529844e-04 4.116579e-04 9.948359e-01 -6.305689e-03 -5.733313e-04 9.631647e-05 6.523610e-04 4.122685e-04 4.685250e-03 -6.937432e-05 -5.772572e-04 8.786708e-05 9.947846e-01 -6.321721e-03 9.948421e-01 -6.226949e-03 -5.696557e-04 1.149935e-04 4.670866e-03 -9.433444e-05 6.754050e-04 4.493450e-04 -5.689100e-04 1.090676e-04 9.948074e-01 -6.288346e-03 6.649592e-04 4.469770e-04 4.647537e-03 -1.499895e-05
3.500000e+09 4.679306e-03 -1.798925e-04 6.584894e-04 5.486769e-04 9.948029e-01 -8.405817e-03 -5.742782e-04 1.285353e-04 6.579185e-04 5.494832e-04 4.691001e-03 -9.349035e-05 -5.783123e-04 1.172750e-04 9.947510e-01 -8.427111e-03 9.948096e-01 -8.300857e-03 -5.703286e-04 1.534191e-04 4.688569e-03 -1.268573e-04 6.776087e-04 5.989633e-04 -5.696894e-04 1.455273e-04 9.947730e-01 -8.382469e-03 6.673399e-04 5.957854e-04 4.665824e-03 -2.115437e-05
4.375000e+09 4.685481e-03 -2.264039e-04 6.655491e-04 6.855258e-04 9.947605e-01 -1.050445e-02 -5.754852e-04 1.608505e-04 6.650446e-04 6.865213e-04 4.698298e-03 -1.184472e-04 -5.796577e-04 1.467839e-04 9.947079e-01 -1.053093e-02 9.947680e-01 -1.037329e-02 -5.711852e-04 1.919249e-04 4.711231e-03 -1.602955e-04 6.804263e-04 7.484431e-04 -5.706816e-04 1.820751e-04 9.947290e-01 -1.047491e-02 6.703821e-04 7.444381e-04 4.689225e-03 -2.829040e-05
5.250000e+09 4.692887e-03 -2.739254e-04 6.741504e-04 8.221642e-04 9.947090e-01 -1.260123e-02 -5.769445e-04 1.932850e-04 6.737252e-04 8.233410e-04 4.707070e-03 -1.444442e-04 -5.812853e-04 1.764179e-04 9.946556e-01 -1.263282e-02 9.947174e-01 -1.244390e-02 -5.722192e-04 2.305302e-04 4.738779e-03 -1.948671e-04 6.838462e-04 8.977517e-04 -5.718796e-04 2.187321e-04 9.946754e-01 -1.256527e-02 6.740718e-04 8.928986e-04 4.717658e-03 -3.663980e-05
6.125000e+09 4.701439e-03 -3.226440e-04 6.842774e-04 9.585530e-04 9.946486e-01 -1.469582e-02 -5.786469e-04 2.258611e-04 6.839435e-04 9.599018e-04 4.717230e-03 -1.716734e-04 -5.831852e-04 2.062003e-04 9.945941e-01 -1.473242e-02 9.946580e-01 -1.451236e-02 -5.734228e-04 2.692535e-04 4.771123e-03 -2.307831e-04 6.878546e-04 1.046858e-03 -5.732747e-04 2.555188e-04 9.946126e-01 -1.465317e-02 6.783925e-04 1.041132e-03 4.751027e-03 -4.642727e-05
7.000000e+09 4.711042e-03 -3.727387e-04 6.959114e-04 1.094655e-03 9.945793e-01 -1.678790e-02 -5.805815e-04 2.586004e-04 6.956797e-04 1.096165e-03 4.728679e-03 -2.003188e-04 -5.853458e-04 2.361535e-04 9.945238e-01 -1.682940e-02 9.945899e-01 -1.657834e-02 -5.747873e-04 3.081130e-04 4.808162e-03 -2.682465e-04 6.924352e-04 1.195731e-03 -5.748568e-04 2.924547e-04 9.945408e-01 -1.673826e-02 6.833251e-04 1.189105e-03 4.789216e-03 -5.786806e-05
7.875000e+09 4.721586e-03 -4.243792e-04 7.090318e-04 1.230433e-03 9.945014e-01 -1.887718e-02 -5.827362e-04 2.915234e-04 7.089117e-04 1.232093e-03 4.741303e-03 -2.305548e-04 -5.877544e-04 2.662990e-04 9.944447e-01 -1.892345e-02 9.945135e-01 -1.864155e-02 -5.763025e-04 3.471259e-04 4.849779e-03 -3.074507e-04 6.975700e-04 1.344344e-03 -5.766146e-04 3.295588e-04 9.944601e-01 -1.882021e-02 6.888478e-04 1.336787e-03 4.832099e-03 -7.116675e-05
8.750000e+09 4.732950e-03 -4.777256e-04 7.236154e-04 1.365855e-03 9.944152e-01 -2.096335e-02 -5.850974e-04 3.246497e-04 7.236152e-04 1.367653e-03 4.754977e-03 -2.625452e-04 -5.903964e-04 2.966572e-04 9.943572e-01 -2.101426e-02 9.944288e-01 -2.070171e-02 -5.779572e-04 3.863087e-04 4.895847e-03 -3.485789e-04 7.032390e-04 1.492670e-03 -5.785354e-04 3.668487e-04 9.943708e-01 -2.089870e-02 6.949372e-04 1.484149e-03 4.879534e-03 -8.651602e-05
9.625000e+09 4.745003e-03 -5.329266e-04 7.396375e-04 1.500889e-03 9.943208e-01 -2.304618e-02 -5.876502e-04 3.579977e-04 7.397637e-04 1.502811e-03 4.769567e-03 -2.964426e-04 -5.932564e-04 3.272472e-04 9.942615e-01 -2.310158e-02 9.943361e-01 -2.275858e-02 -5.797393e-04 4.256768e-04 4.946226e-03 -3.918031e-04 7.094204e-04 1.640685e-03 -5.806056e-04 4.043413e-04 9.942733e-01 -2.297347e-02 7.015675e-04 1.631164e-03 4.931367e-03 -1.040957e-04
1.050000e+10 4.757603e-03 -5.901195e-04 7.570713e-04 1.635505e-03 9.942186e-01 -2.512542e-02 -5.903789e-04 3.915845e-04 7.573291e-04 1.637537e-03 4.784925e-03 -3.323870e-04 -5.963174e-04 3.580868e-04 9.941578e-01 -2.518517e-02 9.942357e-01 -2.481190e-02 -5.816357e-04 4.652450e-04 5.000766e-03 -4.372829e-04 7.160912e-04 1.788366e-03 -5.828103e-04 4.420523e-04 9.941678e-01 -2.504425e-02 7.087115e-04 1.777810e-03 4.987434e-03 -1.240719e-04
1.137500e+10 4.770602e-03 -6.494291e-04 7.758888e-04 1.769676e-03 9.941088e-01 -2.720086e-02 -5.932665e-04 4.254262e-04 7.762817e-04 1.771804e-03 4.800899e-03 -3.705060e-04 -5.995616e-04 3.891924e-04 9.940466e-01 -2.726481e-02 9.941279e-01 -2.686149e-02 -5.836324e-04 5.050269e-04 5.059309e-03 -4.851655e-04 7.232269e-04 1.935694e-03 -5.851340e-04 4.799962e-04 9.940547e-01 -2.711083e-02 7.163406e-04 1.924065e-03 5.047561e-03 -1.465962e-04
1.225000e+10 4.783841e-03 -7.109672e-04 7.960607e-04 1.903378e-03 9.939918e-01 -2.927232e-02 -5.962953e-04 4.595374e-04 7.965905e-04 1.905588e-03 4.817326e-03 -4.109133e-04 -6.029704e-04 4.205791e-04 9.939280e-01 -2.934031e-02 9.940129e-01 -2.890715e-02 -5.857147e-04 5.450348e-04 5.121689e-03 -5.355847e-04 7.308021e-04 2.082651e-03 -5.875601e-04 5.181862e-04 9.939343e-01 -2.917303e-02 7.244252e-04 2.069911e-03 5.111566e-03 -1.718053e-04
1.312500e+10 4.797160e-03 -7.748326e-04 8.175566e-04 2.036589e-03 9.938677e-01 -3.133965e-02 -5.994469e-04 4.939313e-04 8.182236e-04 2.038866e-03 4.834039e-03 -4.537090e-04 -6.065244e-04 4.522604e-04 9.938024e-01 -3.141152e-02 9.938910e-01 -3.094874e-02 -5.878673e-04 5.852804e-04 5.187733e-03 -5.886607e-04 7.387905e-04 2.229222e-03 -5.900715e-04 5.566344e-04 9.938069e-01 -3.123069e-02 7.329346e-04 2.215333e-03 5.179262e-03 -1.998204e-04
1.400000e+10 4.810389e-03 -8.411101e-04 8.403455e-04 2.169290e-03 9.937369e-01 -3.340271e-02 -6.027021e-04 5.286197e-04 8.411484e-04 2.171620e-03 4.850866e-03 -4.989791e-04 -6.102033e-04 4.842484e-04 9.936702e-01 -3.347830e-02 9.937626e-01 -3.298612e-02 -5.900743e-04 6.257738e-04 5.257264e-03 -6.444997e-04 7.471653e-04 2.375394e-03 -5.926505e-04 5.953516e-04 9.936729e-01 -3.328368e-02 7.418379e-04 2.360319e-03 5.250455e-03 -2.307470e-04
1.487500e+10 4.823357e-03 -9.098710e-04 8.643958e-04 2.301463e-03 9.935997e-01 -3.546141e-02 -6.060414e-04 5.636130e-04 8.653317e-04 2.303832e-03 4.867631e-03 -5.467951e-04 -6.139866e-04 5.165536e-04 9.935315e-01 -3.554058e-02 9.936279e-01 -3.501921e-02 -5.923195e-04 6.665242e-04 5.330099e-03 -7.031938e-04 7.558994e-04 2.521158e-03 -5.952790e-04 6.343470e-04 9.935327e-01 -3.533192e-02 7.511038e-04 2.504860e-03 5.324948e-03 -2.646750e-04
1.575000e+10 4.835891e-03 -9.811728e-04 8.896759e-04 2.433095e-03 9.934564e-01 -3.751567e-02 -6.094448e-04 5.989203e-04 8.907403e-04 2.435490e-03 4.884154e-03 -5.972146e-04 -6.178536e-04 5.491849e-04 9.933868e-01 -3.759826e-02 9.934872e-01 -3.704791e-02 -5.945861e-04 7.075397e-04 5.406056e-03 -7.648211e-04 7.649654e-04 2.666505e-03 -5.979384e-04 6.736289e-04 9.933865e-01 -3.737535e-02 7.607011e-04 2.648949e-03 5.402543e-03 -3.016784e-04
1.662500e+10 4.847815e-03 -1.055059e-03 9.161539e-04 2.564173e-03 9.933074e-01 -3.956544e-02 -6.128922e-04 6.345491e-04 9.173410e-04 2.566582e-03 4.900258e-03 -6.502806e-04 -6.217829e-04 5.821498e-04 9.932364e-01 -3.965132e-02 9.933408e-01 -3.907219e-02 -5.968573e-04 7.488271e-04 5.484948e-03 -8.294455e-04 7.743360e-04 2.811430e-03 -6.006102e-04 7.132039e-04 9.932347e-01 -3.941394e-02 7.705987e-04 2.792583e-03 5.483041e-03 -3.418158e-04
1.750000e+10 4.858955e-03 -1.131560e-03 9.437984e-04 2.694689e-03 9.931528e-01 -4.161070e-02 -6.163633e-04 6.705055e-04 9.451010e-04 2.697099e-03 4.915763e-03 -7.060223e-04 -6.257536e-04 6.154544e-04 9.930805e-01 -4.169973e-02 9.931891e-01 -4.109203e-02 -5.991162e-04 7.903921e-04 5.566590e-03 -8.971173e-04 7.839842e-04 2.955931e-03 -6.032756e-04 7.530777e-04 9.930778e-01 -4.144770e-02 7.807663e-04 2.935762e-03 5.566242e-03 -3.851306e-04
1.837500e+10 4.869135e-03 -1.210693e-03 9.725783e-04 2.824636e-03 9.929931e-01 -4.365146e-02 -6.198378e-04 7.067943e-04 9.739880e-04 2.827037e-03 4.930490e-03 -7.644554e-04 -6.297443e-04 6.491030e-04 9.929196e-01 -4.374351e-02 9.930323e-01 -4.310742e-02 -6.013457e-04 8.322393e-04 5.650797e-03 -9.678732e-04 7.938836e-04 3.100007e-03 -6.059158e-04 7.932543e-04 9.929159e-01 -4.347665e-02 7.911742e-04 3.078486e-03 5.651951e-03 -4.316514e-04
1.925000e+10 4.878184e-03 -1.292462e-03 1.002463e-03 2.954009e-03 9.928285e-01 -4.568774e-02 -6.232957e-04 7.434188e-04 1.003971e-03 2.956391e-03 4.944264e-03 -8.255821e-04 -6.337342e-04 6.830987e-04 9.927538e-01 -4.578271e-02 9.928707e-01 -4.511840e-02 -6.035287e-04 8.743721e-04 5.737388e-03 -1.041737e-03 8.040081e-04 3.243658e-03 -6.085121e-04 8.337368e-04 9.927494e-01 -4.550087e-02 8.017937e-04 3.220761e-03 5.739975e-03 -4.813928e-04
2.012500e+10 4.885932e-03 -1.376858e-03 1.033423e-03 3.082807e-03 9.926592e-01 -4.771959e-02 -6.267168e-04 7.803813e-04 1.035018e-03 3.085160e-03 4.956913e-03 -8.893921e-04 -6.377026e-04 7.174432e-04 9.925836e-01 -4.781737e-02 9.927046e-01 -4.712501e-02 -6.056484e-04 9.167931e-04 5.826182e-03 -1.118719e-03 8.143327e-04 3.386890e-03 -6.110462e-04 8.745270e-04 9.925786e-01 -4.752043e-02 8.125973e-04 3.362593e-03 5.830123e-03 -5.343555e-04
2.100000e+10 4.892213e-03 -1.463862e-03 1.065430e-03 3.211027e-03 9.924856e-01 -4.974709e-02 -6.300818e-04 8.176824e-04 1.067101e-03 3.213346e-03 4.968269e-03 -9.558629e-04 -6.416291e-04 7.521369e-04 9.924090e-01 -4.984759e-02 9.925342e-01 -4.912732e-02 -6.076882e-04 9.595036e-04 5.917004e-03 -1.198820e-03 8.248333e-04 3.529708e-03 -6.134999e-04 9.156256e-04 9.924038e-01 -4.953545e-02 8.235589e-04 3.503991e-03 5.922213e-03 -5.905276e-04
2.187500e+10 4.896867e-03 -1.553441e-03 1.098457e-03 3.338673e-03 9.923079e-01 -5.177032e-02 -6.333712e-04 8.553219e-04 1.100191e-03 3.340951e-03 4.978167e-03 -1.024961e-03 -6.454939e-04 7.871789e-04 9.922305e-01 -5.187347e-02 9.923598e-01 -5.112543e-02 -6.096317e-04 1.002504e-03 6.009684e-03 -1.282026e-03 8.354868e-04 3.672119e-03 -6.158555e-04 9.570320e-04 9.922252e-01 -5.154605e-02 8.346537e-04 3.644965e-03 6.016066e-03 -6.498851e-04
2.275000e+10 4.899737e-03 -1.645554e-03 1.132476e-03 3.465748e-03 9.921263e-01 -5.378940e-02 -6.365665e-04 8.932982e-04 1.134262e-03 3.467979e-03 4.986452e-03 -1.096640e-03 -6.492778e-04 8.225670e-04 9.920482e-01 -5.389512e-02 9.921816e-01 -5.311943e-02 -6.114628e-04 1.045794e-03 6.104057e-03 -1.368315e-03 8.462715e-04 3.814132e-03 -6.180957e-04 9.987449e-04 9.920432e-01 -5.355238e-02 8.458589e-04 3.785530e-03 6.111513e-03 -7.123930e-04
2.362500e+10 4.900676e-03 -1.740150e-03 1.167464e-03 3.592256e-03 9.919410e-01 -5.580444e-02 -6.396494e-04 9.316088e-04 1.169289e-03 3.594438e-03 4.992971e-03 -1.170847e-03 -6.529620e-04 8.582981e-04 9.918624e-01 -5.591270e-02 9.919998e-01 -5.510945e-02 -6.131660e-04 1.089371e-03 6.199966e-03 -1.457654e-03 8.571669e-04 3.955758e-03 -6.202037e-04 1.040762e-03 9.918579e-01 -5.555460e-02 8.571530e-04 3.925698e-03 6.208391e-03 -7.780058e-04
2.450000e+10 4.899539e-03 -1.837166e-03 1.203397e-03 3.718203e-03 9.917523e-01 -5.781559e-02 -6.426024e-04 9.702502e-04 1.205248e-03 3.720335e-03 4.997583e-03 -1.247518e-03 -6.565287e-04 8.943680e-04 9.916733e-01 -5.792635e-02 9.918147e-01 -5.709563e-02 -6.147260e-04 1.133235e-03 6.297258e-03 -1.550002e-03 8.681538e-04 4.097009e-03 -6.221633e-04 1.083079e-03 9.916696e-01 -5.755291e-02 8.685166e-04 4.065486e-03 6.306545e-03 -8.466689e-04
2.537500e+10 4.896190e-03 -1.936533e-03 1.240254e-03 3.843598e-03 9.915604e-01 -5.982300e-02 -6.454087e-04 1.009218e-03 1.242118e-03 3.845679e-03 5.000149e-03 -1.326579e-03 -6.599607e-04 9.307714e-04 9.914811e-01 -5.993623e-02 9.916264e-01 -5.907812e-02 -6.161284e-04 1.177380e-03 6.395789e-03 -1.645307e-03 8.792146e-04 4.237898e-03 -6.239591e-04 1.125693e-03 9.914783e-01 -5.954748e-02 8.799321e-04 4.204910e-03 6.405830e-03 -9.183192e-04
2.625000e+10 4.890503e-03 -2.038175e-03 1.278014e-03 3.968448e-03 9.913653e-01 -6.182683e-02 -6.480522e-04 1.048506e-03 1.279878e-03 3.970479e-03 5.000543e-03 -1.407951e-03 -6.632416e-04 9.675024e-04 9.912858e-01 -6.194254e-02 9.914351e-01 -6.105706e-02 -6.173589e-04 1.221805e-03 6.495425e-03 -1.743513e-03 8.903332e-04 4.378440e-03 -6.255761e-04 1.168598e-03 9.912844e-01 -6.153852e-02 8.913838e-04 4.343988e-03 6.506111e-03 -9.928863e-04
2.712500e+10 4.882357e-03 -2.142008e-03 1.316659e-03 4.092763e-03 9.911673e-01 -6.382725e-02 -6.505176e-04 1.088110e-03 1.318510e-03 4.094746e-03 4.998644e-03 -1.491548e-03 -6.663560e-04 1.004554e-03 9.910878e-01 -6.394543e-02 9.912409e-01 -6.303264e-02 -6.184042e-04 1.266504e-03 6.596037e-03 -1.844555e-03 9.014951e-04 4.518650e-03 -6.270002e-04 1.211789e-03 9.910878e-01 -6.352624e-02 9.028580e-04 4.482739e-03 6.607261e-03 -1.070294e-03
2.800000e+10 4.871639e-03 -2.247942e-03 1.356172e-03 4.216554e-03 9.909665e-01 -6.582444e-02 -6.527902e-04 1.128021e-03 1.357998e-03 4.218493e-03 4.994342e-03 -1.577277e-03 -6.692892e-04 1.041919e-03 9.908871e-01 -6.594512e-02 9.910440e-01 -6.500502e-02 -6.192514e-04 1.311473e-03 6.697505e-03 -1.948362e-03 9.126872e-04 4.658543e-03 -6.282180e-04 1.255260e-03 9.908888e-01 -6.551084e-02 9.143428e-04 4.621181e-03 6.709162e-03 -1.150459e-03
2.887500e+10 4.858247e-03 -2.355882e-03 1.396538e-03 4.339830e-03 9.907629e-01 -6.781857e-02 -6.548566e-04 1.168233e-03 1.398328e-03 4.341731e-03 4.987533e-03 -1.665041e-03 -6.720275e-04 1.079590e-03 9.906838e-01 -6.794178e-02 9.908444e-01 -6.697439e-02 -6.198883e-04 1.356705e-03 6.799721e-03 -2.054861e-03 9.238982e-04 4.798137e-03 -6.292169e-04 1.299003e-03 9.906874e-01 -6.749255e-02 9.258284e-04 4.759335e-03 6.811709e-03 -1.233295e-03
2.975000e+10 4.842085e-03 -2.465729e-03 1.437744e-03 4.462604e-03 9.905568e-01 -6.980984e-02 -6.567037e-04 1.208738e-03 1.439487e-03 4.464471e-03 4.978125e-03 -1.754738e-03 -6.745582e-04 1.117557e-03 9.904780e-01 -6.993562e-02 9.906423e-01 -6.894091e-02 -6.203034e-04 1.402196e-03 6.902581e-03 -2.163972e-03 9.351181e-04 4.937447e-03 -6.299851e-04 1.343012e-03 9.904838e-01 -6.947158e-02 9.373067e-04 4.897219e-03 6.914805e-03 -1.318713e-03
3.062500e+10 4.823067e-03 -2.577380e-03 1.479778e-03 4.584885e-03 9.903481e-01 -7.179842e-02 -6.583198e-04 1.249527e-03 1.481463e-03 4.586727e-03 4.966033e-03 -1.846263e-03 -6.768694e-04 1.155811e-03 9.902698e-01 -7.192684e-02 9.904378e-01 -7.090478e-02 -6.204858e-04 1.447937e-03 7.005993e-03 -2.275612e-03 9.463386e-04 5.076491e-03 -6.305115e-04 1.387279e-03 9.902779e-01 -7.144813e-02 9.487715e-04 5.034854e-03 7.018362e-03 -1.406618e-03
3.150000e+10 4.801113e-03 -2.690730e-03 1.522629e-03 4.706686e-03 9.901370e-01 -7.378451e-02 -6.596936e-04 1.290592e-03 1.524248e-03 4.708511e-03 4.951181e-03 -1.939509e-03 -6.789503e-04 1.194344e-03 9.900592e-01 -7.391562e-02 9.902309e-01 -7.286618e-02 -6.204255e-04 1.493923e-03 7.109874e-03 -2.389695e-03 9.575530e-04 5.215287e-03 -6.307859e-04 1.431795e-03 9.900697e-01 -7.342243e-02 9.602184e-04 5.172259e-03 7.122303e-03 -1.496918e-03
3.237500e+10 4.776156e-03 -2.805671e-03 1.566290e-03 4.828018e-03 9.899234e-01 -7.576828e-02 -6.608150e-04 1.331924e-03 1.567834e-03 4.829834e-03 4.933501e-03 -2.034366e-03 -6.807908e-04 1.233145e-03 9.898462e-01 -7.590216e-02 9.900216e-01 -7.482529e-02 -6.201128e-04 1.540147e-03 7.214147e-03 -2.506137e-03 9.687559e-04 5.353851e-03 -6.307989e-04 1.476553e-03 9.898594e-01 -7.539467e-02 9.716444e-04 5.309452e-03 7.226560e-03 -1.589515e-03
3.325000e+10 4.748134e-03 -2.922094e-03 1.610754e-03 4.948892e-03 9.897075e-01 -7.774991e-02 -6.616745e-04 1.373512e-03 1.612215e-03 4.950709e-03 4.912935e-03 -2.130724e-03 -6.823818e-04 1.272205e-03 9.896310e-01 -7.788665e-02 9.898100e-01 -7.678228e-02 -6.195392e-04 1.586601e-03 7.318745e-03 -2.624847e-03 9.799432e-04 5.492200e-03 -6.305419e-04 1.521544e-03 9.896468e-01 -7.736505e-02 9.830483e-04 5.446452e-03 7.331076e-03 -1.684315e-03
3.412500e+10 4.716993e-03 -3.039889e-03 1.656014e-03 5.069319e-03 9.894891e-01 -7.972959e-02 -6.622638e-04 1.415349e-03 1.657387e-03 5.071148e-03 4.889433e-03 -2.228472e-03 -6.837153e-04 1.311514e-03 9.894134e-01 -7.986926e-02 9.895961e-01 -7.873732e-02 -6.186965e-04 1.633277e-03 7.423611e-03 -2.745737e-03 9.911124e-04 5.630351e-03 -6.300069e-04 1.566759e-03 9.894321e-01 -7.933376e-02 9.944304e-04 5.583278e-03 7.435799e-03 -1.781221e-03
3.500000e+10 4.682688e-03 -3.158946e-03 1.702066e-03 5.189309e-03 9.892684e-01 -8.170747e-02 -6.625751e-04 1.457425e-03 1.703345e-03 5.191160e-03 4.862953e-03 -2.327500e-03 -6.847840e-04 1.351062e-03 9.891935e-01 -8.185019e-02 9.893799e-01 -8.069059e-02 -6.175772e-04 1.680168e-03 7.528693e-03 -2.868719e-03 1.002262e-03 5.768320e-03 -6.291870e-04 1.612190e-03 9.892150e-01 -8.130098e-02 1.005792e-03 5.719947e-03 7.540690e-03 -1.880141e-03
3.587500e+10 4.645182e-03 -3.279156e-03 1.748907e-03 5.308872e-03 9.890452e-01 -8.368373e-02 -6.626014e-04 1.499729e-03 1.750089e-03 5.310757e-03 4.833460e-03 -2.427697e-03 -6.855814e-04 1.390839e-03 9.889712e-01 -8.382958e-02 9.891614e-01 -8.264225e-02 -6.161747e-04 1.727266e-03 7.633949e-03 -2.993706e-03 1.013392e-03 5.906124e-03 -6.280757e-04 1.657827e-03 9.889957e-01 -8.326688e-02 1.017137e-03 5.856475e-03 7.645714e-03 -1.980981e-03
3.675000e+10 4.604444e-03 -3.400410e-03 1.796536e-03 5.428017e-03 9.888196e-01 -8.565852e-02 -6.623369e-04 1.542252e-03 1.797618e-03 5.429947e-03 4.800927e-03 -2.528955e-03 -6.861019e-04 1.430834e-03 9.887465e-01 -8.580760e-02 9.889404e-01 -8.459244e-02 -6.144828e-04 1.774564e-03 7.739343e-03 -3.120610e-03 1.024503e-03 6.043777e-03 -6.266675e-04 1.703663e-03 9.887739e-01 -8.523161e-02 1.028468e-03 5.992877e-03 7.750848e-03 -2.083651e-03
3.762500e+10 4.560451e-03 -3.522602e-03 1.844951e-03 5.546752e-03 9.885915e-01 -8.763198e-02 -6.617760e-04 1.584985e-03 1.845931e-03 5.548739e-03 4.765335e-03 -2.631167e-03 -6.863407e-04 1.471038e-03 9.885193e-01 -8.778439e-02 9.887172e-01 -8.654131e-02 -6.124961e-04 1.822052e-03 7.844847e-03 -3.249347e-03 1.035597e-03 6.181294e-03 -6.249575e-04 1.749688e-03 9.885497e-01 -8.719532e-02 1.039790e-03 6.129169e-03 7.856072e-03 -2.188065e-03
3.850000e+10 4.513187e-03 -3.645625e-03 1.894152e-03 5.665087e-03 9.883609e-01 -8.960425e-02 -6.609143e-04 1.627919e-03 1.895031e-03 5.667142e-03 4.726670e-03 -2.734230e-03 -6.862937e-04 1.511442e-03 9.882897e-01 -8.976010e-02 9.884914e-01 -8.848900e-02 -6.102097e-04 1.869725e-03 7.950440e-03 -3.379834e-03 1.046677e-03 6.318690e-03 -6.229414e-04 1.795893e-03 9.883230e-01 -8.915813e-02 1.051109e-03 6.265363e-03 7.961376e-03 -2.294138e-03
3.937500e+10 4.462641e-03 -3.769378e-03 1.944142e-03 5.783026e-03 9.881277e-01 -9.157546e-02 -6.597477e-04 1.671044e-03 1.944919e-03 5.785161e-03 4.684925e-03 -2.838041e-03 -6.859575e-04 1.552035e-03 9.880574e-01 -9.173484e-02 9.882632e-01 -9.043563e-02 -6.076193e-04 1.917573e-03 8.056105e-03 -3.511991e-03 1.057746e-03 6.455976e-03 -6.206156e-04 1.842271e-03 9.880936e-01 -9.112017e-02 1.062432e-03 6.401472e-03 8.066753e-03 -2.401789e-03
4.025000e+10 4.408809e-03 -3.893761e-03 1.994920e-03 5.900578e-03 9.878919e-01 -9.354573e-02 -6.582730e-04 1.714350e-03 1.995599e-03 5.902804e-03 4.640100e-03 -2.942503e-03 -6.853295e-04 1.592810e-03 9.878225e-01 -9.370874e-02 9.880324e-01 -9.238131e-02 -6.047212e-04 1.965590e-03 8.161834e-03 -3.645741e-03 1.068809e-03 6.593166e-03 -6.179771e-04 1.888813e-03 9.878615e-01 -9.308155e-02 1.073766e-03 6.537507e-03 8.172206e-03 -2.510944e-03
4.112500e+10 4.351692e-03 -4.018677e-03 2.046491e-03 6.017747e-03 9.876533e-01 -9.551515e-02 -6.564876e-04 1.757830e-03 2.047073e-03 6.020074e-03 4.592198e-03 -3.047519e-03 -6.844075e-04 1.633756e-03 9.875848e-01 -9.568189e-02 9.877989e-01 -9.432615e-02 -6.015122e-04 2.013767e-03 8.267622e-03 -3.781011e-03 1.079870e-03 6.730271e-03 -6.150235e-04 1.935510e-03 9.876265e-01 -9.504234e-02 1.085118e-03 6.673479e-03 8.277739e-03 -2.621528e-03
4.200000e+10 4.291296e-03 -4.144032e-03 2.098856e-03 6.134537e-03 9.874119e-01 -9.748384e-02 -6.543895e-04 1.801475e-03 2.099347e-03 6.136976e-03 4.541229e-03 -3.152999e-03 -6.831902e-04 1.674865e-03 9.873443e-01 -9.765439e-02 9.875628e-01 -9.627025e-02 -5.979896e-04 2.062098e-03 8.373470e-03 -3.917729e-03 1.090936e-03 6.867301e-03 -6.117529e-04 1.982356e-03 9.873886e-01 -9.700263e-02 1.096496e-03 6.809396e-03 8.383363e-03 -2.733475e-03
4.287500e+10 4.227632e-03 -4.269737e-03 2.152019e-03 6.250952e-03 9.871677e-01 -9.945186e-02 -6.519769e-04 1.845276e-03 2.152423e-03 6.253513e-03 4.487207e-03 -3.258856e-03 -6.816764e-04 1.716129e-03 9.871009e-01 -9.962631e-02 9.873239e-01 -9.821369e-02 -5.941512e-04 2.110575e-03 8.479384e-03 -4.055829e-03 1.102011e-03 7.004267e-03 -6.081638e-04 2.029343e-03 9.871477e-01 -9.896248e-02 1.107909e-03 6.945267e-03 8.489093e-03 -2.846721e-03
4.375000e+10 4.160715e-03 -4.395705e-03 2.205984e-03 6.366995e-03 9.869204e-01 -1.014193e-01 -6.492490e-04 1.889225e-03 2.206308e-03 6.369687e-03 4.430150e-03 -3.365005e-03 -6.798658e-04 1.757540e-03 9.868544e-01 -1.015977e-01 9.870820e-01 -1.001565e-01 -5.899952e-04 2.159191e-03 8.585372e-03 -4.195248e-03 1.113103e-03 7.141177e-03 -6.042555e-04 2.076462e-03 9.869036e-01 -1.009219e-01 1.119364e-03 7.081098e-03 8.594945e-03 -2.961207e-03
4.462500e+10 4.090563e-03 -4.521855e-03 2.260755e-03 6.482668e-03 9.866701e-01 -1.033862e-01 -6.462052e-04 1.933316e-03 2.261005e-03 6.485498e-03 4.370079e-03 -3.471368e-03 -6.777582e-04 1.799090e-03 9.866049e-01 -1.035687e-01 9.868373e-01 -1.020989e-01 -5.855203e-04 2.207939e-03 8.691447e-03 -4.335926e-03 1.124218e-03 7.278039e-03 -6.000273e-04 2.123709e-03 9.866563e-01 -1.028810e-01 1.130871e-03 7.216895e-03 8.700942e-03 -3.076881e-03
4.550000e+10 4.017200e-03 -4.648107e-03 2.316337e-03 6.597970e-03 9.864167e-01 -1.053527e-01 -6.428452e-04 1.977540e-03 2.316521e-03 6.600948e-03 4.307019e-03 -3.577870e-03 -6.753542e-04 1.840773e-03 9.863521e-01 -1.055392e-01 9.865894e-01 -1.040407e-01 -5.807254e-04 2.256814e-03 8.797627e-03 -4.477810e-03 1.135362e-03 7.414860e-03 -5.954792e-04 2.171075e-03 9.864056e-01 -1.048398e-01 1.142436e-03 7.352662e-03 8.807107e-03 -3.193691e-03
4.637500e+10 3.940649e-03 -4.774389e-03 2.372733e-03 6.712903e-03 9.861600e-01 -1.073187e-01 -6.391694e-04 2.021890e-03 2.372859e-03 6.716034e-03 4.240997e-03 -3.684440e-03 -6.726544e-04 1.882582e-03 9.860960e-01 -1.075094e-01 9.863385e-01 -1.059821e-01 -5.756099e-04 2.305809e-03 8.903929e-03 -4.620849e-03 1.146543e-03 7.551647e-03 -5.906113e-04 2.218554e-03 9.861514e-01 -1.067983e-01 1.154069e-03 7.488403e-03 8.913466e-03 -3.311596e-03
4.725000e+10 3.860939e-03 -4.900631e-03 2.429948e-03 6.827466e-03 9.859000e-01 -1.092843e-01 -6.351783e-04 2.066361e-03 2.430024e-03 6.830756e-03 4.172043e-03 -3.791013e-03 -6.696598e-04 1.924510e-03 9.858364e-01 -1.094792e-01 9.860843e-01 -1.079231e-01 -5.701736e-04 2.354917e-03 9.010376e-03 -4.764995e-03 1.157766e-03 7.688404e-03 -5.854243e-04 2.266141e-03 9.858937e-01 -1.087564e-01 1.165776e-03 7.624122e-03 9.020046e-03 -3.430554e-03
4.812500e+10 3.778100e-03 -5.026767e-03 2.487986e-03 6.941656e-03 9.856366e-01 -1.112495e-01 -6.308726e-04 2.110945e-03 2.488022e-03 6.945110e-03 4.100190e-03 -3.897527e-03 -6.663718e-04 1.966551e-03 9.855734e-01 -1.114487e-01 9.858268e-01 -1.098637e-01 -5.644163e-04 2.404134e-03 9.116991e-03 -4.910207e-03 1.169039e-03 7.825136e-03 -5.799189e-04 2.313831e-03 9.856322e-01 -1.107142e-01 1.177566e-03 7.759819e-03 9.126876e-03 -3.550531e-03
4.900000e+10 3.692164e-03 -5.152737e-03 2.546852e-03 7.055472e-03 9.853696e-01 -1.132144e-01 -6.262536e-04 2.155638e-03 2.546856e-03 7.059093e-03 4.025469e-03 -4.003924e-03 -6.627919e-04 2.008701e-03 9.853069e-01 -1.134179e-01 9.855660e-01 -1.118040e-01 -5.583385e-04 2.453454e-03 9.223798e-03 -5.056446e-03 1.180369e-03 7.961847e-03 -5.740962e-04 2.361617e-03 9.853671e-01 -1.126717e-01 1.189446e-03 7.895495e-03 9.233985e-03 -3.671496e-03
4.987500e+10 3.603163e-03 -5.278482e-03 2.606549e-03 7.168910e-03 9.850991e-01 -1.151789e-01 -6.213226e-04 2.200433e-03 2.606532e-03 7.172702e-03 3.947915e-03 -4.110153e-03 -6.589219e-04 2.050954e-03 9.850366e-01 -1.153867e-01 9.853016e-01 -1.137439e-01 -5.519405e-04 2.502871e-03 9.330824e-03 -5.203678e-03 1.191761e-03 8.098540e-03 -5.679574e-04 2.409495e-03 9.850981e-01 -1.146289e-01 1.201421e-03 8.031151e-03 9.341403e-03 -3.793423e-03
5.075000e+10 3.511132e-03 -5.403951e-03 2.667080e-03 7.281967e-03 9.848250e-01 -1.171431e-01 -6.160810e-04 2.245327e-03 2.667052e-03 7.285932e-03 3.867564e-03 -4.216164e-03 -6.547636e-04 2.093305e-03 9.847626e-01 -1.173551e-01 9.850337e-01 -1.156834e-01 -5.452231e-04 2.552381e-03 9.438096e-03 -5.351872e-03 1.203221e-03 8.235217e-03 -5.615040e-04 2.457460e-03 9.848252e-01 -1.165856e-01 1.213499e-03 8.166786e-03 9.449160e-03 -3.916290e-03
5.162500e+10 3.416106e-03 -5.529094e-03 2.728450e-03 7.394638e-03 9.845471e-01 -1.191068e-01 -6.105306e-04 2.290313e-03 2.728420e-03 7.398776e-03 3.784450e-03 -4.321913e-03 -6.503190e-04 2.135750e-03 9.844848e-01 -1.193232e-01 9.847622e-01 -1.176226e-01 -5.381870e-04 2.601980e-03 9.545642e-03 -5.501003e-03 1.214757e-03 8.371879e-03 -5.547375e-04 2.505509e-03 9.845484e-01 -1.185418e-01 1.225684e-03 8.302400e-03 9.557286e-03 -4.040080e-03
5.250000e+10 3.318120e-03 -5.653867e-03 2.790662e-03 7.506918e-03 9.842654e-01 -1.210702e-01 -6.046732e-04 2.335388e-03 2.790639e-03 7.511230e-03 3.698610e-03 -4.427359e-03 -6.455903e-04 2.178286e-03 9.842031e-01 -1.212909e-01 9.844870e-01 -1.195613e-01 -5.308334e-04 2.651663e-03 9.653489e-03 -5.651047e-03 1.226372e-03 8.508528e-03 -5.476597e-04 2.553638e-03 9.842675e-01 -1.204976e-01 1.237981e-03 8.437990e-03 9.665809e-03 -4.164778e-03
5.337500e+10 3.217210e-03 -5.778228e-03 2.853717e-03 7.618803e-03 9.839799e-01 -1.230332e-01 -5.985106e-04 2.380548e-03 2.853712e-03 7.623286e-03 3.610080e-03 -4.532467e-03 -6.405794e-04 2.220909e-03 9.839174e-01 -1.232581e-01 9.842081e-01 -1.214997e-01 -5.231634e-04 2.701426e-03 9.761666e-03 -5.801986e-03 1.238073e-03 8.645164e-03 -5.402721e-04 2.601843e-03 9.839825e-01 -1.224529e-01 1.250395e-03 8.573554e-03 9.774759e-03 -4.290373e-03
5.425000e+10 3.113411e-03 -5.902141e-03 2.917619e-03 7.730285e-03 9.836904e-01 -1.249957e-01 -5.920448e-04 2.425789e-03 2.917641e-03 7.734939e-03 3.518893e-03 -4.637203e-03 -6.352887e-04 2.263615e-03 9.836278e-01 -1.252249e-01 9.839254e-01 -1.234375e-01 -5.151781e-04 2.751266e-03 9.870199e-03 -5.953803e-03 1.249864e-03 8.781786e-03 -5.325767e-04 2.650121e-03 9.836934e-01 -1.244075e-01 1.262929e-03 8.709090e-03 9.884161e-03 -4.416858e-03
5.512500e+10 3.006758e-03 -6.025571e-03 2.982369e-03 7.841360e-03 9.833970e-01 -1.269578e-01 -5.852778e-04 2.471109e-03 2.982426e-03 7.846181e-03 3.425086e-03 -4.741537e-03 -6.297201e-04 2.306403e-03 9.833341e-01 -1.271911e-01 9.836388e-01 -1.253750e-01 -5.068790e-04 2.801179e-03 9.979117e-03 -6.106486e-03 1.261749e-03 8.918395e-03 -5.245753e-04 2.698469e-03 9.834002e-01 -1.263616e-01 1.275586e-03 8.844596e-03 9.994043e-03 -4.544229e-03
5.600000e+10 2.897286e-03 -6.148489e-03 3.047968e-03 7.952019e-03 9.830995e-01 -1.289193e-01 -5.782115e-04 2.516504e-03 3.048070e-03 7.957004e-03 3.328690e-03 -4.845444e-03 -6.238759e-04 2.349270e-03 9.830363e-01 -1.291568e-01 9.833483e-01 -1.273118e-01 -4.982674e-04 2.851163e-03 1.008844e-02 -6.260026e-03 1.273732e-03 9.054989e-03 -5.162695e-04 2.746885e-03 9.831028e-01 -1.283148e-01 1.288368e-03 8.980067e-03 1.010443e-02 -4.672485e-03
5.687500e+10 2.785029e-03 -6.270866e-03 3.114418e-03 8.062257e-03 9.827980e-01 -1.308803e-01 -5.708479e-04 2.561971e-03 3.114571e-03 8.067401e-03 3.229739e-03 -4.948901e-03 -6.177580e-04 2.392214e-03 9.827344e-01 -1.311218e-01 9.830538e-01 -1.292482e-01 -4.893446e-04 2.901213e-03 1.019821e-02 -6.414416e-03 1.285817e-03 9.191568e-03 -5.076613e-04 2.795367e-03 9.828011e-01 -1.302674e-01 1.301278e-03 9.115501e-03 1.021534e-02 -4.801625e-03
5.775000e+10 2.670018e-03 -6.392678e-03 3.181718e-03 8.172066e-03 9.824924e-01 -1.328407e-01 -5.631889e-04 2.607510e-03 3.181931e-03 8.177364e-03 3.128263e-03 -5.051887e-03 -6.113683e-04 2.435232e-03 9.824284e-01 -1.330862e-01 9.827554e-01 -1.311839e-01 -4.801122e-04 2.951329e-03 1.030843e-02 -6.569652e-03 1.298006e-03 9.328128e-03 -4.987522e-04 2.843912e-03 9.824953e-01 -1.322191e-01 1.314315e-03 9.250895e-03 1.032680e-02 -4.931655e-03
5.862500e+10 2.552286e-03 -6.513905e-03 3.249869e-03 8.281439e-03 9.821827e-01 -1.348004e-01 -5.552364e-04 2.653116e-03 3.250148e-03 8.286885e-03 3.024293e-03 -5.154385e-03 -6.047089e-04 2.478325e-03 9.821181e-01 -1.350499e-01 9.824531e-01 -1.331190e-01 -4.705714e-04 3.001507e-03 1.041914e-02 -6.725733e-03 1.310302e-03 9.464670e-03 -4.895440e-04 2.892520e-03 9.821852e-01 -1.341699e-01 1.327480e-03 9.386245e-03 1.043882e-02 -5.062579e-03
5.950000e+10 2.431862e-03 -6.634526e-03 3.318870e-03 8.390369e-03 9.818688e-01 -1.367594e-01 -5.469921e-04 2.698790e-03 3.319222e-03 8.395957e-03 2.917856e-03 -5.256380e-03 -5.977812e-04 2.521489e-03 9.818037e-01 -1.370128e-01 9.821466e-01 -1.350534e-01 -4.607238e-04 3.051745e-03 1.053035e-02 -6.882659e-03 1.322706e-03 9.601189e-03 -4.800382e-04 2.941189e-03 9.818709e-01 -1.361197e-01 1.340773e-03 9.521547e-03 1.055143e-02 -5.194404e-03
6.037500e+10 2.308775e-03 -6.754525e-03 3.388720e-03 8.498848e-03 9.815508e-01 -1.387177e-01 -5.384578e-04 2.744528e-03 3.389149e-03 8.504571e-03 2.808979e-03 -5.357859e-03 -5.905871e-04 2.564725e-03 9.814851e-01 -1.389749e-01 9.818362e-01 -1.369870e-01 -4.505705e-04 3.102042e-03 1.064209e-02 -7.040434e-03 1.335220e-03 9.737685e-03 -4.702362e-04 2.989917e-03 9.815524e-01 -1.380685e-01 1.354194e-03 9.656800e-03 1.066464e-02 -5.327140e-03
6.125000e+10 2.183052e-03 -6.873889e-03 3.459417e-03 8.606869e-03 9.812286e-01 -1.406751e-01 -5.296349e-04 2.790331e-03 3.459929e-03 8.612720e-03 2.697686e-03 -5.458810e-03 -5.831279e-04 2.608032e-03 9.811623e-01 -1.409360e-01 9.815217e-01 -1.389199e-01 -4.401130e-04 3.152396e-03 1.075437e-02 -7.199061e-03 1.347846e-03 9.874156e-03 -4.601393e-04 3.038704e-03 9.812297e-01 -1.400163e-01 1.367740e-03 9.791999e-03 1.077846e-02 -5.460796e-03
6.212500e+10 2.054718e-03 -6.992603e-03 3.530960e-03 8.714424e-03 9.809023e-01 -1.426318e-01 -5.205249e-04 2.836197e-03 3.531558e-03 8.720395e-03 2.584000e-03 -5.559226e-03 -5.754048e-04 2.651409e-03 9.808353e-01 -1.428963e-01 9.812032e-01 -1.408519e-01 -4.293524e-04 3.202805e-03 1.086721e-02 -7.358547e-03 1.360583e-03 1.001060e-02 -4.497487e-04 3.087549e-03 9.809028e-01 -1.419630e-01 1.381410e-03 9.927142e-03 1.089291e-02 -5.595383e-03
6.300000e+10 1.923797e-03 -7.110658e-03 3.603346e-03 8.821506e-03 9.805718e-01 -1.445875e-01 -5.111291e-04 2.882125e-03 3.604034e-03 8.827590e-03 2.467942e-03 -5.659097e-03 -5.674191e-04 2.694855e-03 9.805041e-01 -1.448556e-01 9.808806e-01 -1.427830e-01 -4.182898e-04 3.253268e-03 1.098063e-02 -7.518900e-03 1.373431e-03 1.014701e-02 -4.390655e-04 3.136451e-03 9.805718e-01 -1.439084e-01 1.395201e-03 1.006223e-02 1.100798e-02 -5.730914e-03
6.387500e+10 1.790311e-03 -7.228044e-03 3.676572e-03 8.928108e-03 9.802371e-01 -1.465423e-01 -5.014487e-04 2.928115e-03 3.677352e-03 8.934297e-03 2.349531e-03 -5.758419e-03 -5.591716e-04 2.738371e-03 9.801688e-01 -1.468139e-01 9.805540e-01 -1.447133e-01 -4.069264e-04 3.303785e-03 1.109464e-02 -7.680128e-03 1.386390e-03 1.028339e-02 -4.280906e-04 3.185410e-03 9.802367e-01 -1.458527e-01 1.409111e-03 1.019725e-02 1.112370e-02 -5.867400e-03
6.475000e+10 1.654280e-03 -7.344754e-03 3.750636e-03 9.034223e-03 9.798983e-01 -1.484961e-01 -4.914846e-04 2.974166e-03 3.751508e-03 9.040508e-03 2.228783e-03 -5.857185e-03 -5.506632e-04 2.781957e-03 9.798293e-01 -1.487710e-01 9.802233e-01 -1.466425e-01 -3.952630e-04 3.354353e-03 1.120925e-02 -7.842242e-03 1.399460e-03 1.041973e-02 -4.168246e-04 3.234425e-03 9.798975e-01 -1.477957e-01 1.423137e-03 1.033221e-02 1.124006e-02 -6.004855e-03
6.562500e+10 1.515722e-03 -7.460779e-03 3.825533e-03 9.139844e-03 9.795554e-01 -1.504489e-01 -4.812378e-04 3.020278e-03 3.826499e-03 9.146218e-03 2.105715e-03 -5.955390e-03 -5.418943e-04 2.825612e-03 9.794857e-01 -1.507271e-01 9.798887e-01 -1.485707e-01 -3.833005e-04 3.404972e-03 1.132447e-02 -8.005252e-03 1.412639e-03 1.055604e-02 -4.052681e-04 3.283498e-03 9.795543e-01 -1.497375e-01 1.437275e-03 1.046710e-02 1.135707e-02 -6.143291e-03
6.650000e+10 1.374653e-03 -7.576115e-03 3.901261e-03 9.244964e-03 9.792084e-01 -1.524007e-01 -4.707087e-04 3.066450e-03 3.902320e-03 9.251419e-03 1.980338e-03 -6.053032e-03 -5.328654e-04 2.869336e-03 9.791380e-01 -1.526820e-01 9.795500e-01 -1.504979e-01 -3.710396e-04 3.455642e-03 1.144032e-02 -8.169169e-03 1.425925e-03 1.069231e-02 -3.934215e-04 3.332626e-03 9.792071e-01 -1.516779e-01 1.451521e-03 1.060193e-02 1.147473e-02 -6.282722e-03
6.737500e+10 1.231088e-03 -7.690756e-03 3.977814e-03 9.349577e-03 9.788572e-01 -1.543513e-01 -4.598980e-04 3.112683e-03 3.978966e-03 9.356105e-03 1.852664e-03 -6.150107e-03 -5.235766e-04 2.913130e-03 9.787862e-01 -1.546358e-01 9.792074e-01 -1.524240e-01 -3.584809e-04 3.506362e-03 1.155678e-02 -8.334006e-03 1.439317e-03 1.082854e-02 -3.812849e-04 3.381811e-03 9.788560e-01 -1.536169e-01 1.465872e-03 1.073670e-02 1.159305e-02 -6.423160e-03
6.825000e+10 1.085040e-03 -7.804697e-03 4.055188e-03 9.453677e-03 9.785021e-01 -1.563008e-01 -4.488060e-04 3.158976e-03 4.056431e-03 9.460270e-03 1.722702e-03 -6.246612e-03 -5.140280e-04 2.956994e-03 9.784304e-01 -1.565883e-01 9.788609e-01 -1.543489e-01 -3.456249e-04 3.557131e-03 1.167389e-02 -8.499774e-03 1.452813e-03 1.096472e-02 -3.688585e-04 3.431052e-03 9.785010e-01 -1.555546e-01 1.480323e-03 1.087139e-02 1.171200e-02 -6.564620e-03
6.912500e+10 9.365198e-04 -7.917934e-03 4.133379e-03 9.557257e-03 9.781428e-01 -1.582491e-01 -4.374329e-04 3.205329e-03 4.134710e-03 9.563908e-03 1.590461e-03 -6.342544e-03 -5.042194e-04 3.000927e-03 9.780707e-01 -1.585396e-01 9.785104e-01 -1.562727e-01 -3.324718e-04 3.607949e-03 1.179163e-02 -8.666487e-03 1.466410e-03 1.110087e-02 -3.561421e-04 3.480349e-03 9.781421e-01 -1.574910e-01 1.494870e-03 1.100602e-02 1.183161e-02 -6.707111e-03
7.000000e+10 7.855364e-04 -8.030463e-03 4.212383e-03 9.660312e-03 9.777796e-01 -1.601963e-01 -4.257785e-04 3.251743e-03 4.213799e-03 9.667015e-03 1.455946e-03 -6.437900e-03 -4.941504e-04 3.044932e-03 9.777070e-01 -1.604896e-01 9.781561e-01 -1.581954e-01 -3.190220e-04 3.658816e-03 1.191000e-02 -8.834155e-03 1.480106e-03 1.123697e-02 -3.431353e-04 3.529703e-03 9.777795e-01 -1.594259e-01 1.509509e-03 1.114058e-02 1.195185e-02 -6.850647e-03
7.087500e+10 6.320977e-04 -8.142279e-03 4.292193e-03 9.762837e-03 9.774125e-01 -1.621422e-01 -4.138428e-04 3.298217e-03 4.293691e-03 9.769585e-03 1.319161e-03 -6.532676e-03 -4.838205e-04 3.089007e-03 9.773393e-01 -1.624383e-01 9.777979e-01 -1.601168e-01 -3.052755e-04 3.709731e-03 1.202902e-02 -9.002793e-03 1.493898e-03 1.137302e-02 -3.298376e-04 3.579114e-03 9.774131e-01 -1.613595e-01 1.524235e-03 1.127507e-02 1.207273e-02 -6.995238e-03
7.175000e+10 4.762098e-04 -8.253380e-03 4.372805e-03 9.864827e-03 9.770414e-01 -1.640869e-01 -4.016253e-04 3.344751e-03 4.374381e-03 9.871614e-03 1.180109e-03 -6.626870e-03 -4.732291e-04 3.133152e-03 9.769679e-01 -1.643857e-01 9.774359e-01 -1.620370e-01 -2.912322e-04 3.760694e-03 1.214867e-02 -9.172411e-03 1.507782e-03 1.150903e-02 -3.162485e-04 3.628581e-03 9.770431e-01 -1.632916e-01 1.539044e-03 1.140950e-02 1.219424e-02 -7.140895e-03
7.262500e+10 3.178773e-04 -8.363759e-03 4.454214e-03 9.966277e-03 9.766664e-01 -1.660303e-01 -3.891257e-04 3.391346e-03 4.455863e-03 9.973097e-03 1.038791e-03 -6.720478e-03 -4.623751e-04 3.177369e-03 9.765925e-01 -1.663319e-01 9.770702e-01 -1.639559e-01 -2.768920e-04 3.811705e-03 1.226896e-02 -9.343022e-03 1.521757e-03 1.164499e-02 -3.023672e-04 3.678105e-03 9.766694e-01 -1.652224e-01 1.553932e-03 1.154387e-02 1.231637e-02 -7.287626e-03
7.350000e+10 1.571035e-04 -8.473413e-03 4.536415e-03 1.006718e-02 9.762876e-01 -1.679725e-01 -3.763431e-04 3.438002e-03 4.538132e-03 1.007403e-02 8.952084e-04 -6.813494e-03 -4.512577e-04 3.221657e-03 9.762135e-01 -1.682767e-01 9.767007e-01 -1.658737e-01 -2.622546e-04 3.862764e-03 1.238988e-02 -9.514636e-03 1.535818e-03 1.178091e-02 -2.881926e-04 3.727686e-03 9.762921e-01 -1.671518e-01 1.568895e-03 1.167817e-02 1.243910e-02 -7.435442e-03
7.437500e+10 -6.109684e-06 -8.582335e-03 4.619402e-03 1.016754e-02 9.759050e-01 -1.699134e-01 -3.632768e-04 3.484718e-03 4.621181e-03 1.017441e-02 7.493591e-04 -6.905915e-03 -4.398757e-04 3.266017e-03 9.758306e-01 -1.702202e-01 9.763275e-01 -1.677901e-01 -2.473194e-04 3.913870e-03 1.251142e-02 -9.687265e-03 1.549962e-03 1.191678e-02 -2.737236e-04 3.777323e-03 9.759112e-01 -1.690798e-01 1.583928e-03 1.181241e-02 1.256244e-02 -7.584348e-03
7.525000e+10 -1.717616e-04 -8.690521e-03 4.703170e-03 1.026734e-02 9.755186e-01 -1.718530e-01 -3.499259e-04 3.531495e-03 4.705006e-03 1.027424e-02 6.012410e-04 -6.997733e-03 -4.282277e-04 3.310448e-03 9.754441e-01 -1.721623e-01 9.759507e-01 -1.697053e-01 -2.320859e-04 3.965024e-03 1.263359e-02 -9.860920e-03 1.564187e-03 1.205261e-02 -2.589592e-04 3.827017e-03 9.755269e-01 -1.710065e-01 1.599027e-03 1.194660e-02 1.268637e-02 -7.734352e-03
7.612500e+10 -3.398525e-04 -8.797964e-03 4.787714e-03 1.036659e-02 9.751285e-01 -1.737914e-01 -3.362891e-04 3.578333e-03 4.789600e-03 1.037350e-02 4.508511e-04 -7.088942e-03 -4.163123e-04 3.354950e-03 9.750540e-01 -1.741032e-01 9.755702e-01 -1.716193e-01 -2.165535e-04 4.016225e-03 1.275638e-02 -1.003561e-02 1.578489e-03 1.218839e-02 -2.438978e-04 3.876767e-03 9.751391e-01 -1.729318e-01 1.614190e-03 1.208073e-02 1.281088e-02 -7.885460e-03
7.700000e+10 -5.103837e-04 -8.904657e-03 4.873028e-03 1.046528e-02 9.747346e-01 -1.757285e-01 -3.223654e-04 3.625231e-03 4.874959e-03 1.047221e-02 2.981853e-04 -7.179534e-03 -4.041281e-04 3.399524e-03 9.746602e-01 -1.760428e-01 9.751862e-01 -1.735320e-01 -2.007213e-04 4.067472e-03 1.287977e-02 -1.021134e-02 1.592864e-03 1.232413e-02 -2.285380e-04 3.926573e-03 9.747478e-01 -1.748559e-01 1.629412e-03 1.221481e-02 1.293595e-02 -8.037676e-03
7.787500e+10 -6.833575e-04 -9.010591e-03 4.959109e-03 1.056341e-02 9.743372e-01 -1.776643e-01 -3.081534e-04 3.672189e-03 4.961077e-03 1.057035e-02 1.432389e-04 -7.269501e-03 -3.916732e-04 3.444169e-03 9.742628e-01 -1.779810e-01 9.747986e-01 -1.754434e-01 -1.845885e-04 4.118766e-03 1.300377e-02 -1.038813e-02 1.607310e-03 1.245983e-02 -2.128782e-04 3.976435e-03 9.743532e-01 -1.767787e-01 1.644691e-03 1.234885e-02 1.306158e-02 -8.191004e-03
7.875000e+10 -8.587769e-04 -9.115757e-03 5.045950e-03 1.066097e-02 9.739361e-01 -1.795989e-01 -2.936516e-04 3.719208e-03 5.047949e-03 1.066792e-02 -1.399341e-05 -7.358834e-03 -3.789461e-04 3.488884e-03 9.738619e-01 -1.799181e-01 9.744075e-01 -1.773536e-01 -1.681539e-04 4.170106e-03 1.312835e-02 -1.056597e-02 1.621824e-03 1.259550e-02 -1.969169e-04 4.026353e-03 9.739552e-01 -1.787002e-01 1.660023e-03 1.248284e-02 1.318776e-02 -8.345446e-03
7.962500e+10 -1.036645e-03 -9.220147e-03 5.133546e-03 1.075796e-02 9.735314e-01 -1.815322e-01 -2.788585e-04 3.766286e-03 5.135571e-03 1.076493e-02 -1.735173e-04 -7.447520e-03 -3.659449e-04 3.533670e-03 9.734575e-01 -1.818538e-01 9.740130e-01 -1.792626e-01 -1.514166e-04 4.221492e-03 1.325352e-02 -1.074488e-02 1.636402e-03 1.273112e-02 -1.806522e-04 4.076324e-03 9.735539e-01 -1.806206e-01 1.675406e-03 1.261679e-02 1.331446e-02 -8.501005e-03
8.050000e+10 -1.216967e-03 -9.323748e-03 5.221894e-03 1.085439e-02 9.731231e-01 -1.834643e-01 -2.637725e-04 3.813424e-03 5.223938e-03 1.086137e-02 -3.353390e-04 -7.535550e-03 -3.526677e-04 3.578525e-03 9.730496e-01 -1.837884e-01 9.736150e-01 -1.811703e-01 -1.343753e-04 4.272923e-03 1.337926e-02 -1.092486e-02 1.651043e-03 1.286671e-02 -1.640823e-04 4.126350e-03 9.731493e-01 -1.825398e-01 1.690837e-03 1.275070e-02 1.344169e-02 -8.657680e-03
8.137500e+10 -1.399747e-03 -9.426551e-03 5.310989e-03 1.095024e-02 9.727114e-01 -1.853951e-01 -2.483918e-04 3.860620e-03 5.313044e-03 1.095723e-02 -4.994647e-04 -7.622909e-03 -3.391125e-04 3.623450e-03 9.726383e-01 -1.857217e-01 9.732135e-01 -1.830769e-01 -1.170286e-04 4.324399e-03 1.350556e-02 -1.110591e-02 1.665742e-03 1.300226e-02 -1.472053e-04 4.176429e-03 9.727414e-01 -1.844578e-01 1.706315e-03 1.288458e-02 1.356943e-02 -8.815472e-03
8.225000e+10 -1.584989e-03 -9.528541e-03 5.400825e-03 1.104552e-02 9.722961e-01 -1.873248e-01 -2.327146e-04 3.907874e-03 5.402888e-03 1.105253e-02 -6.659009e-04 -7.709584e-03 -3.252774e-04 3.668443e-03 9.722235e-01 -1.876539e-01 9.728087e-01 -1.849822e-01 -9.937538e-05 4.375920e-03 1.363241e-02 -1.128805e-02 1.680498e-03 1.313779e-02 -1.300194e-04 4.226560e-03 9.723302e-01 -1.863747e-01 1.721839e-03 1.301843e-02 1.369767e-02 -8.974379e-03
8.312500e+10 -1.772699e-03 -9.629705e-03 5.491400e-03 1.114022e-02 9.718773e-01 -1.892533e-01 -2.167392e-04 3.955185e-03 5.493463e-03 1.114725e-02 -8.346541e-04 -7.795560e-03 -3.111603e-04 3.713503e-03 9.718053e-01 -1.895849e-01 9.724006e-01 -1.868864e-01 -8.141405e-05 4.427483e-03 1.375981e-02 -1.147127e-02 1.695309e-03 1.327328e-02 -1.125225e-04 4.276743e-03 9.719157e-01 -1.882906e-01 1.737406e-03 1.315226e-02 1.382639e-02 -9.134401e-03
8.400000e+10 -1.962881e-03 -9.730028e-03 5.582708e-03 1.123434e-02 9.714551e-01 -1.911807e-01 -2.004637e-04 4.002553e-03 5.584767e-03 1.124139e-02 -1.005731e-03 -7.880822e-03 -2.967592e-04 3.758630e-03 9.713838e-01 -1.915148e-01 9.719890e-01 -1.887895e-01 -6.314317e-05 4.479090e-03 1.388774e-02 -1.165558e-02 1.710172e-03 1.340875e-02 -9.471275e-05 4.326975e-03 9.714980e-01 -1.902055e-01 1.753016e-03 1.328607e-02 1.395558e-02 -9.295533e-03
8.487500e+10 -2.155542e-03 -9.829496e-03 5.674747e-03 1.132789e-02 9.710295e-01 -1.931070e-01 -1.838860e-04 4.049976e-03 5.676796e-03 1.133496e-02 -1.179137e-03 -7.965352e-03 -2.820720e-04 3.803822e-03 9.709589e-01 -1.934436e-01 9.715742e-01 -1.906915e-01 -4.456122e-05 4.530739e-03 1.401618e-02 -1.184097e-02 1.725086e-03 1.354420e-02 -7.658812e-05 4.377255e-03 9.710770e-01 -1.921193e-01 1.768669e-03 1.341987e-02 1.408525e-02 -9.457773e-03
8.575000e+10 -2.350686e-03 -9.928090e-03 5.767512e-03 1.142085e-02 9.706004e-01 -1.950321e-01 -1.670043e-04 4.097454e-03 5.769547e-03 1.142795e-02 -1.354878e-03 -8.049133e-03 -2.670965e-04 3.849077e-03 9.705306e-01 -1.953713e-01 9.711560e-01 -1.925924e-01 -2.566661e-05 4.582428e-03 1.414514e-02 -1.202745e-02 1.740049e-03 1.367963e-02 -5.814664e-05 4.427583e-03 9.706527e-01 -1.940322e-01 1.784363e-03 1.355365e-02 1.421536e-02 -9.621117e-03
8.662500e+10 -2.548318e-03 -1.002579e-02 5.861001e-03 1.151323e-02 9.701680e-01 -1.969562e-01 -1.498166e-04 4.144985e-03 5.863017e-03 1.152037e-02 -1.532960e-03 -8.132146e-03 -2.518309e-04 3.894396e-03 9.700989e-01 -1.972980e-01 9.707346e-01 -1.944922e-01 -6.457731e-06 4.634158e-03 1.427460e-02 -1.221503e-02 1.755059e-03 1.381505e-02 -3.938632e-05 4.477957e-03 9.702252e-01 -1.959442e-01 1.800100e-03 1.368743e-02 1.434593e-02 -9.785561e-03
8.750000e+10 -2.748442e-03 -1.012259e-02 5.955210e-03 1.160503e-02 9.697321e-01 -1.988792e-01 -1.323210e-04 4.192567e-03 5.957204e-03 1.161220e-02 -1.713387e-03 -8.214371e-03 -2.362729e-04 3.939775e-03 9.696639e-01 -1.992237e-01 9.703098e-01 -1.963910e-01 1.306704e-05 4.685927e-03 1.440455e-02 -1.240368e-02 1.770115e-03 1.395045e-02 -2.030524e-05 4.528374e-03 9.697944e-01 -1.978553e-01 1.815879e-03 1.382120e-02 1.447693e-02 -9.951098e-03
8.837500e+10 -2.951063e-03 -1.021846e-02 6.050136e-03 1.169625e-02 9.692928e-01 -2.008013e-01 -1.145154e-04 4.240200e-03 6.052104e-03 1.170346e-02 -1.896164e-03 -8.295788e-03 -2.204206e-04 3.985214e-03 9.692256e-01 -2.011484e-01 9.698818e-01 -1.982888e-01 3.290937e-05 4.737733e-03 1.453497e-02 -1.259343e-02 1.785218e-03 1.408585e-02 -9.014696e-07 4.578833e-03 9.693603e-01 -1.997656e-01 1.831702e-03 1.395498e-02 1.460836e-02 -1.011772e-02
8.925000e+10 -3.156183e-03 -1.031338e-02 6.145776e-03 1.178687e-02 9.688502e-01 -2.027223e-01 -9.639785e-05 4.287882e-03 6.147717e-03 1.179413e-02 -2.081296e-03 -8.376376e-03 -2.042721e-04 4.030711e-03 9.687839e-01 -2.030722e-01 9.694505e-01 -2.001856e-01 5.307091e-05 4.789576e-03 1.466587e-02 -1.278426e-02 1.800364e-03 1.422123e-02 1.882685e-05 4.629332e-03 9.689230e-01 -2.016750e-01 1.847569e-03 1.408876e-02 1.474021e-02 -1.028543e-02
9.012500e+10 -3.363808e-03 -1.040733e-02 6.242128e-03 1.187691e-02 9.684041e-01 -2.046424e-01 -7.796649e-05 4.335611e-03 6.244038e-03 1.188422e-02 -2.268784e-03 -8.456113e-03 -1.878252e-04 4.076264e-03 9.683389e-01 -2.049951e-01 9.690160e-01 -2.020814e-01 7.355332e-05 4.841454e-03 1.479723e-02 -1.297618e-02 1.815556e-03 1.435662e-02 3.888152e-05 4.679870e-03 9.684823e-01 -2.035837e-01 1.863482e-03 1.422255e-02 1.487247e-02 -1.045422e-02
9.100000e+10 -3.573938e-03 -1.050029e-02 6.339190e-03 1.196636e-02 9.679547e-01 -2.065615e-01 -5.921937e-05 4.383385e-03 6.341068e-03 1.197373e-02 -2.458631e-03 -8.534977e-03 -1.710782e-04 4.121870e-03 9.678905e-01 -2.069171e-01 9.685781e-01 -2.039764e-01 9.435825e-05 4.893365e-03 1.492904e-02 -1.316917e-02 1.830791e-03 1.449200e-02 5.926432e-05 4.730443e-03 9.680382e-01 -2.054915e-01 1.879441e-03 1.435635e-02 1.500515e-02 -1.062408e-02
9.187500e+10 -3.786576e-03 -1.059224e-02 6.436959e-03 1.205522e-02 9.675019e-01 -2.084797e-01 -4.015462e-05 4.431203e-03 6.438804e-03 1.206265e-02 -2.650839e-03 -8.612944e-03 -1.540293e-04 4.167529e-03 9.674387e-01 -2.088383e-01 9.681370e-01 -2.058704e-01 1.154874e-04 4.945308e-03 1.506130e-02 -1.336324e-02 1.846071e-03 1.462739e-02 7.997692e-05 4.781050e-03 9.675909e-01 -2.073987e-01 1.895450e-03 1.449016e-02 1.513823e-02 -1.079500e-02
9.275000e+10 -4.001724e-03 -1.068315e-02 6.535434e-03 1.214349e-02 9.670457e-01 -2.103971e-01 -2.077041e-05 4.479062e-03 6.537245e-03 1.215098e-02 -2.845408e-03 -8.689992e-03 -1.366766e-04 4.213238e-03 9.669836e-01 -2.107586e-01 9.676926e-01 -2.077636e-01 1.369422e-04 4.997282e-03 1.519399e-02 -1.355839e-02 1.861395e-03 1.476279e-02 1.010209e-04 4.831689e-03 9.671401e-01 -2.093051e-01 1.911509e-03 1.462400e-02 1.527170e-02 -1.096698e-02
9.362500e+10 -4.219381e-03 -1.077301e-02 6.634612e-03 1.223116e-02 9.665861e-01 -2.123136e-01 -1.064967e-06 4.526961e-03 6.636390e-03 1.223873e-02 -3.042338e-03 -8.766097e-03 -1.190184e-04 4.258994e-03 9.665250e-01 -2.126781e-01 9.672449e-01 -2.096559e-01 1.587245e-04 5.049284e-03 1.532711e-02 -1.375460e-02 1.876764e-03 1.489820e-02 1.223979e-04 4.882357e-03 9.666859e-01 -2.112108e-01 1.927621e-03 1.475786e-02 1.540557e-02 -1.114001e-02
9.450000e+10 -4.439547e-03 -1.086178e-02 6.734492e-03 1.231824e-02 9.661230e-01 -2.142292e-01 1.896344e-05 4.574898e-03 6.736236e-03 1.232588e-02 -3.241629e-03 -8.841235e-03 -1.010532e-04 4.304796e-03 9.660631e-01 -2.145969e-01 9.667939e-01 -2.115474e-01 1.808357e-04 5.101314e-03 1.546065e-02 -1.395188e-02 1.892179e-03 1.503362e-02 1.441092e-04 4.933051e-03 9.662282e-01 -2.131158e-01 1.943788e-03 1.489174e-02 1.553984e-02 -1.131408e-02
9.537500e+10 -4.662222e-03 -1.094945e-02 6.835073e-03 1.240471e-02 9.656565e-01 -2.161441e-01 3.931645e-05 4.622869e-03 6.836785e-03 1.241244e-02 -3.443278e-03 -8.915380e-03 -8.277932e-05 4.350641e-03 9.655977e-01 -2.165148e-01 9.663396e-01 -2.134381e-01 2.032774e-04 5.153368e-03 1.559461e-02 -1.415021e-02 1.907641e-03 1.516905e-02 1.661562e-04 4.983770e-03 9.657671e-01 -2.150201e-01 1.960012e-03 1.502564e-02 1.567449e-02 -1.148919e-02
9.625000e+10 -4.887403e-03 -1.103598e-02 6.936352e-03 1.249059e-02 9.651866e-01 -2.180581e-01 5.999567e-05 4.670874e-03 6.938034e-03 1.249841e-02 -3.647282e-03 -8.988510e-03 -6.419541e-05 4.396527e-03 9.651288e-01 -2.184321e-01 9.658819e-01 -2.153280e-01 2.260509e-04 5.205444e-03 1.572898e-02 -1.434961e-02 1.923150e-03 1.530451e-02 1.885402e-04 5.034510e-03 9.653025e-01 -2.169238e-01 1.976297e-03 1.515957e-02 1.580953e-02 -1.166534e-02
9.712500e+10 -5.115087e-03 -1.112136e-02 7.038329e-03 1.257587e-02 9.647132e-01 -2.199713e-01 8.100260e-05 4.718909e-03 7.039982e-03 1.258378e-02 -3.853637e-03 -9.060599e-03 -4.530006e-05 4.442451e-03 9.646565e-01 -2.203485e-01 9.654209e-01 -2.172171e-01 2.491578e-04 5.257542e-03 1.586375e-02 -1.455005e-02 1.938707e-03 1.543998e-02 2.112623e-04 5.085269e-03 9.648343e-01 -2.188267e-01 1.992644e-03 1.529354e-02 1.594495e-02 -1.184251e-02
9.800000e+10 -5.345271e-03 -1.120556e-02 7.141002e-03 1.266054e-02 9.642363e-01 -2.218838e-01 1.023387e-04 4.766973e-03 7.142630e-03 1.266855e-02 -4.062339e-03 -9.131624e-03 -2.609200e-05 4.488411e-03 9.641806e-01 -2.222643e-01 9.649566e-01 -2.191055e-01 2.725994e-04 5.309659e-03 1.599892e-02 -1.475154e-02 1.954315e-03 1.557548e-02 2.343235e-04 5.136044e-03 9.643626e-01 -2.207290e-01 2.009056e-03 1.542753e-02 1.608076e-02 -1.202070e-02
9.887500e+10 -5.577950e-03 -1.128856e-02 7.244371e-03 1.274460e-02 9.637559e-01 -2.237956e-01 1.240053e-04 4.815062e-03 7.245976e-03 1.275271e-02 -4.273382e-03 -9.201559e-03 -6.570030e-06 4.534405e-03 9.637012e-01 -2.241793e-01 9.644888e-01 -2.209931e-01 2.963770e-04 5.361792e-03 1.613449e-02 -1.495407e-02 1.969975e-03 1.571101e-02 2.577249e-04 5.186833e-03 9.638873e-01 -2.226307e-01 2.025536e-03 1.556155e-02 1.621695e-02 -1.219991e-02
9.975000e+10 -5.813118e-03 -1.137033e-02 7.348434e-03 1.282805e-02 9.632720e-01 -2.257066e-01 1.460036e-04 4.863175e-03 7.350019e-03 1.283627e-02 -4.486759e-03 -9.270380e-03 1.326694e-05 4.580430e-03 9.632183e-01 -2.260937e-01 9.640176e-01 -2.228800e-01 3.204918e-04 5.413940e-03 1.627046e-02 -1.515763e-02 1.985689e-03 1.584656e-02 2.814672e-04 5.237632e-03 9.634084e-01 -2.245316e-01 2.042087e-03 1.569561e-02 1.635353e-02 -1.238013e-02
1.006250e+11 -6.050770e-03 -1.145084e-02 7.453190e-03 1.291089e-02 9.627845e-01 -2.276168e-01 1.683349e-04 4.911308e-03 7.454759e-03 1.291923e-02 -4.702463e-03 -9.338064e-03 3.341990e-05 4.626483e-03 9.627318e-01 -2.280073e-01 9.635430e-01 -2.247662e-01 3.449450e-04 5.466100e-03 1.640681e-02 -1.536222e-02 2.001457e-03 1.598214e-02 3.055511e-04 5.288440e-03 9.629258e-01 -2.264319e-01 2.058710e-03 1.582970e-02 1.649049e-02 -1.256135e-02
1.015000e+11 -6.290897e-03 -1.153008e-02 7.558638e-03 1.299312e-02 9.622934e-01 -2.295264e-01 1.910003e-04 4.959460e-03 7.560196e-03 1.300156e-02 -4.920485e-03 -9.404586e-03 5.388976e-05 4.672562e-03 9.622417e-01 -2.299202e-01 9.630649e-01 -2.266516e-01 3.697377e-04 5.518270e-03 1.654355e-02 -1.556785e-02 2.017283e-03 1.611776e-02 3.299773e-04 5.339254e-03 9.624395e-01 -2.283314e-01 2.075410e-03 1.596383e-02 1.662784e-02 -1.274358e-02
1.023750e+11 -6.533493e-03 -1.160801e-02 7.664777e-03 1.307472e-02 9.617988e-01 -2.314352e-01 2.140006e-04 5.007627e-03 7.666328e-03 1.308329e-02 -5.140817e-03 -9.469923e-03 7.467734e-05 4.718664e-03 9.617479e-01 -2.318324e-01 9.625834e-01 -2.285364e-01 3.948709e-04 5.570448e-03 1.668068e-02 -1.577449e-02 2.033167e-03 1.625341e-02 3.547463e-04 5.390071e-03 9.619495e-01 -2.302303e-01 2.092188e-03 1.609799e-02 1.676557e-02 -1.292680e-02
1.032500e+11 -6.778547e-03 -1.168461e-02 7.771606e-03 1.315570e-02 9.613005e-01 -2.333432e-01 2.373370e-04 5.055807e-03 7.773154e-03 1.316439e-02 -5.363448e-03 -9.534053e-03 9.578335e-05 4.764788e-03 9.612505e-01 -2.337439e-01 9.620983e-01 -2.304204e-01 4.203456e-04 5.622630e-03 1.681819e-02 -1.598215e-02 2.049113e-03 1.638909e-02 3.798585e-04 5.440887e-03 9.614557e-01 -2.321284e-01 2.109046e-03 1.623218e-02 1.690370e-02 -1.311102e-02
1.041250e+11 -7.026051e-03 -1.175986e-02 7.879125e-03 1.323606e-02 9.607985e-01 -2.352506e-01 2.610101e-04 5.103998e-03 7.880675e-03 1.324487e-02 -5.588368e-03 -9.596952e-03 1.172084e-04 4.810929e-03 9.607494e-01 -2.356547e-01 9.616097e-01 -2.323037e-01 4.461626e-04 5.674816e-03 1.695608e-02 -1.619082e-02 2.065122e-03 1.652482e-02 4.053143e-04 5.491702e-03 9.609582e-01 -2.340258e-01 2.125987e-03 1.636641e-02 1.704222e-02 -1.329624e-02
1.050000e+11 -7.275993e-03 -1.183374e-02 7.987331e-03 1.331578e-02 9.602929e-01 -2.371572e-01 2.850208e-04 5.152196e-03 7.988889e-03 1.332472e-02 -5.815565e-03 -9.658599e-03 1.389531e-04 4.857086e-03 9.602445e-01 -2.375648e-01 9.611176e-01 -2.341863e-01 4.723227e-04 5.727002e-03 1.709436e-02 -1.640050e-02 2.081195e-03 1.666057e-02 4.311139e-04 5.542511e-03 9.604569e-01 -2.359224e-01 2.143014e-03 1.650067e-02 1.718113e-02 -1.348244e-02
1.058750e+11 -7.528363e-03 -1.190622e-02 8.096225e-03 1.339487e-02 9.597835e-01 -2.390631e-01 3.093696e-04 5.200400e-03 8.097794e-03 1.340394e-02 -6.045027e-03 -9.718973e-03 1.610179e-04 4.903257e-03 9.597360e-01 -2.394741e-01 9.606218e-01 -2.360682e-01 4.988267e-04 5.779187e-03 1.723302e-02 -1.661119e-02 2.097336e-03 1.679637e-02 4.572574e-04 5.593313e-03 9.599518e-01 -2.378182e-01 2.160128e-03 1.663496e-02 1.732043e-02 -1.366964e-02
1.067500e+11 -7.783149e-03 -1.197727e-02 8.205804e-03 1.347333e-02 9.592704e-01 -2.409683e-01 3.340571e-04 5.248606e-03 8.207390e-03 1.348252e-02 -6.276741e-03 -9.778052e-03 1.834031e-04 4.949438e-03 9.592236e-01 -2.413827e-01 9.601225e-01 -2.379494e-01 5.256751e-04 5.831367e-03 1.737206e-02 -1.682288e-02 2.113547e-03 1.693220e-02 4.837449e-04 5.644105e-03 9.594429e-01 -2.397132e-01 2.177331e-03 1.676929e-02 1.746014e-02 -1.385782e-02
1.076250e+11 -8.040338e-03 -1.204689e-02 8.316067e-03 1.355114e-02 9.587536e-01 -2.428726e-01 3.590838e-04 5.296812e-03 8.317676e-03 1.356046e-02 -6.510695e-03 -9.835816e-03 2.061090e-04 4.995628e-03 9.587075e-01 -2.432905e-01 9.596195e-01 -2.398298e-01 5.528686e-04 5.883541e-03 1.751149e-02 -1.703557e-02 2.129828e-03 1.706808e-02 5.105763e-04 5.694884e-03 9.589301e-01 -2.416074e-01 2.194625e-03 1.690364e-02 1.760025e-02 -1.404699e-02
1.085000e+11 -8.299916e-03 -1.211504e-02 8.427014e-03 1.362831e-02 9.582330e-01 -2.447763e-01 3.844501e-04 5.345016e-03 8.428650e-03 1.363775e-02 -6.746875e-03 -9.892246e-03 2.291359e-04 5.041824e-03 9.581875e-01 -2.451976e-01 9.591129e-01 -2.417095e-01 5.804076e-04 5.935705e-03 1.765130e-02 -1.724926e-02 2.146183e-03 1.720399e-02 5.377516e-04 5.745649e-03 9.584135e-01 -2.435007e-01 2.212011e-03 1.703803e-02 1.774076e-02 -1.423716e-02
1.093750e+11 -8.561871e-03 -1.218171e-02 8.538642e-03 1.370482e-02 9.577086e-01 -2.466791e-01 4.101562e-04 5.393214e-03 8.540311e-03 1.371439e-02 -6.985265e-03 -9.947322e-03 2.524839e-04 5.088024e-03 9.576638e-01 -2.471038e-01 9.586026e-01 -2.435884e-01 6.082926e-04 5.987859e-03 1.779150e-02 -1.746394e-02 2.162613e-03 1.733994e-02 5.652707e-04 5.796396e-03 9.578930e-01 -2.453930e-01 2.229492e-03 1.717244e-02 1.788168e-02 -1.442831e-02
1.102500e+11 -8.826188e-03 -1.224687e-02 8.650950e-03 1.378068e-02 9.571804e-01 -2.485812e-01 4.362025e-04 5.441405e-03 8.652657e-03 1.379038e-02 -7.225853e-03 -1.000103e-02 2.761532e-04 5.134226e-03 9.571361e-01 -2.490092e-01 9.580886e-01 -2.454665e-01 6.365238e-04 6.039998e-03 1.793208e-02 -1.767962e-02 2.179121e-03 1.747594e-02 5.931332e-04 5.847124e-03 9.573686e-01 -2.472845e-01 2.247067e-03 1.730688e-02 1.802301e-02 -1.462045e-02
1.111250e+11 -9.092852e-03 -1.231050e-02 8.763937e-03 1.385588e-02 9.566483e-01 -2.504824e-01 4.625890e-04 5.489587e-03 8.765685e-03 1.386570e-02 -7.468623e-03 -1.005334e-02 3.001437e-04 5.180426e-03 9.566046e-01 -2.509138e-01 9.575710e-01 -2.473438e-01 6.651016e-04 6.092122e-03 1.807305e-02 -1.789629e-02 2.195707e-03 1.761197e-02 6.213389e-04 5.897830e-03 9.568403e-01 -2.491750e-01 2.264739e-03 1.744135e-02 1.816475e-02 -1.481359e-02
1.120000e+11 -9.361848e-03 -1.237259e-02 8.877601e-03 1.393042e-02 9.561124e-01 -2.523828e-01 4.893159e-04 5.537755e-03 8.879395e-03 1.394036e-02 -7.713559e-03 -1.010426e-02 3.244555e-04 5.226624e-03 9.560693e-01 -2.528175e-01 9.570495e-01 -2.492203e-01 6.940262e-04 6.144227e-03 1.821442e-02 -1.811396e-02 2.212374e-03 1.774804e-02 6.498875e-04 5.948513e-03 9.563081e-01 -2.510645e-01 2.282507e-03 1.757584e-02 1.830691e-02 -1.500772e-02
1.128750e+11 -9.633160e-03 -1.243312e-02 8.991939e-03 1.400429e-02 9.555726e-01 -2.542824e-01 5.163832e-04 5.585910e-03 8.993785e-03 1.401435e-02 -7.960647e-03 -1.015375e-02 3.490884e-04 5.272817e-03 9.555300e-01 -2.547203e-01 9.565244e-01 -2.510960e-01 7.232978e-04 6.196312e-03 1.835617e-02 -1.833262e-02 2.229124e-03 1.788415e-02 6.787787e-04 5.999171e-03 9.557721e-01 -2.529530e-01 2.300373e-03 1.771035e-02 1.844949e-02 -1.520285e-02
1.137500e+11 -9.906774e-03 -1.249206e-02 9.106949e-03 1.407748e-02 9.550289e-01 -2.561810e-01 5.437909e-04 5.634047e-03 9.108850e-03 1.408766e-02 -8.209872e-03 -1.020180e-02 3.740424e-04 5.319003e-03 9.549868e-01 -2.566222e-01 9.559955e-01 -2.529709e-01 7.529163e-04 6.248375e-03 1.849832e-02 -1.855227e-02 2.245957e-03 1.802030e-02 7.080121e-04 6.049801e-03 9.552321e-01 -2.548405e-01 2.318337e-03 1.784489e-02 1.859248e-02 -1.539899e-02
1.146250e+11 -1.018267e-02 -1.254941e-02 9.222631e-03 1.414999e-02 9.544813e-01 -2.580788e-01 5.715389e-04 5.682165e-03 9.224590e-03 1.416028e-02 -8.461216e-03 -1.024840e-02 3.993173e-04 5.365180e-03 9.544397e-01 -2.585231e-01 9.554628e-01 -2.548448e-01 7.828820e-04 6.300412e-03 1.864086e-02 -1.877292e-02 2.262876e-03 1.815649e-02 7.375872e-04 6.100401e-03 9.546883e-01 -2.567268e-01 2.336398e-03 1.797944e-02 1.873590e-02 -1.559612e-02
1.155000e+11 -1.046084e-02 -1.260514e-02 9.338980e-03 1.422182e-02 9.539298e-01 -2.599757e-01 5.996271e-04 5.730262e-03 9.341001e-03 1.423223e-02 -8.714666e-03 -1.029354e-02 4.249130e-04 5.411347e-03 9.538887e-01 -2.604231e-01 9.549263e-01 -2.567179e-01 8.131947e-04 6.352423e-03 1.878380e-02 -1.899456e-02 2.279882e-03 1.829271e-02 7.675036e-04 6.150971e-03 9.541405e-01 -2.586121e-01 2.354558e-03 1.811401e-02 1.887973e-02 -1.579427e-02
1.163750e+11 -1.074126e-02 -1.265925e-02 9.455994e-03 1.429296e-02 9.533744e-01 -2.618716e-01 6.280553e-04 5.778335e-03 9.458081e-03 1.430347e-02 -8.970206e-03 -1.033720e-02 4.508292e-04 5.457501e-03 9.533338e-01 -2.623221e-01 9.543860e-01 -2.585900e-01 8.438544e-04 6.404404e-03 1.892715e-02 -1.921720e-02 2.296976e-03 1.842897e-02 7.977610e-04 6.201508e-03 9.535889e-01 -2.604962e-01 2.372816e-03 1.824860e-02 1.902400e-02 -1.599344e-02
1.172500e+11 -1.102392e-02 -1.271171e-02 9.573672e-03 1.436341e-02 9.528151e-01 -2.637665e-01 6.568232e-04 5.826383e-03 9.575827e-03 1.437403e-02 -9.227819e-03 -1.037937e-02 4.770658e-04 5.503640e-03 9.527749e-01 -2.642200e-01 9.538420e-01 -2.604612e-01 8.748610e-04 6.456355e-03 1.907089e-02 -1.944084e-02 2.314158e-03 1.856527e-02 8.283588e-04 6.252011e-03 9.530335e-01 -2.623792e-01 2.391171e-03 1.838321e-02 1.916868e-02 -1.619363e-02
1.181250e+11 -1.130880e-02 -1.276251e-02 9.692010e-03 1.443316e-02 9.522518e-01 -2.656605e-01 6.859308e-04 5.874403e-03 9.694235e-03 1.444388e-02 -9.487491e-03 -1.042004e-02 5.036225e-04 5.549764e-03 9.522121e-01 -2.661169e-01 9.532941e-01 -2.623314e-01 9.062144e-04 6.508273e-03 1.921503e-02 -1.966548e-02 2.331431e-03 1.870160e-02 8.592967e-04 6.302478e-03 9.524741e-01 -2.642610e-01 2.409624e-03 1.851783e-02 1.931380e-02 -1.639484e-02
1.190000e+11 -1.159588e-02 -1.281164e-02 9.811005e-03 1.450220e-02 9.516846e-01 -2.675534e-01 7.153776e-04 5.922394e-03 9.813303e-03 1.451302e-02 -9.749208e-03 -1.045920e-02 5.304992e-04 5.595870e-03 9.516454e-01 -2.680127e-01 9.527424e-01 -2.642006e-01 9.379143e-04 6.560156e-03 1.935958e-02 -1.989112e-02 2.348794e-03 1.883796e-02 8.905744e-04 6.352908e-03 9.519110e-01 -2.661416e-01 2.428173e-03 1.865246e-02 1.945933e-02 -1.659708e-02
1.198750e+11 -1.188515e-02 -1.285909e-02 9.930654e-03 1.457054e-02 9.511134e-01 -2.694453e-01 7.451635e-04 5.970355e-03 9.933026e-03 1.458145e-02 -1.001295e-02 -1.049683e-02 5.576955e-04 5.641958e-03 9.510748e-01 -2.699074e-01 9.521869e-01 -2.660688e-01 9.699608e-04 6.612003e-03 1.950454e-02 -2.011778e-02 2.366248e-03 1.897436e-02 9.221913e-04 6.403299e-03 9.513439e-01 -2.680209e-01 2.446818e-03 1.878711e-02 1.960530e-02 -1.680036e-02
1.207500e+11 -1.217659e-02 -1.290484e-02 1.005095e-02 1.463816e-02 9.505383e-01 -2.713361e-01 7.752881e-04 6.018282e-03 1.005340e-02 1.464916e-02 -1.027871e-02 -1.053293e-02 5.852113e-04 5.688025e-03 9.505002e-01 -2.718010e-01 9.516276e-01 -2.679360e-01 1.002353e-03 6.663812e-03 1.964990e-02 -2.034545e-02 2.383795e-03 1.911079e-02 9.541472e-04 6.453652e-03 9.507731e-01 -2.698990e-01 2.465557e-03 1.892177e-02 1.975169e-02 -1.700468e-02
1.216250e+11 -1.247018e-02 -1.294888e-02 1.017190e-02 1.470507e-02 9.499592e-01 -2.732258e-01 8.057512e-04 6.066175e-03 1.017442e-02 1.471614e-02 -1.054647e-02 -1.056749e-02 6.130464e-04 5.734070e-03 9.499217e-01 -2.736935e-01 9.510645e-01 -2.698021e-01 1.035092e-03 6.715580e-03 1.979567e-02 -2.057413e-02 2.401433e-03 1.924725e-02 9.864417e-04 6.503963e-03 9.501985e-01 -2.717759e-01 2.484391e-03 1.905644e-02 1.989850e-02 -1.721006e-02
1.225000e+11 -1.276592e-02 -1.299120e-02 1.029349e-02 1.477125e-02 9.493762e-01 -2.751144e-01 8.365524e-04 6.114031e-03 1.029609e-02 1.478240e-02 -1.081622e-02 -1.060050e-02 6.412005e-04 5.780092e-03 9.493393e-01 -2.755847e-01 9.504975e-01 -2.716671e-01 1.068177e-03 6.767308e-03 1.994185e-02 -2.080384e-02 2.419164e-03 1.938375e-02 1.019075e-03 6.554233e-03 9.496201e-01 -2.736515e-01 2.503317e-03 1.919112e-02 2.004574e-02 -1.741649e-02
1.233750e+11 -1.306378e-02 -1.303179e-02 1.041573e-02 1.483670e-02 9.487892e-01 -2.770018e-01 8.676914e-04 6.161851e-03 1.041840e-02 1.484793e-02 -1.108794e-02 -1.063195e-02 6.696735e-04 5.826089e-03 9.487530e-01 -2.774748e-01 9.499268e-01 -2.735310e-01 1.101607e-03 6.818992e-03 2.008844e-02 -2.103458e-02 2.436988e-03 1.952027e-02 1.052046e-03 6.604460e-03 9.490379e-01 -2.755257e-01 2.522334e-03 1.932581e-02 2.019339e-02 -1.762398e-02
1.242500e+11 -1.336375e-02 -1.307064e-02 1.053860e-02 1.490142e-02 9.481984e-01 -2.788881e-01 8.991681e-04 6.209631e-03 1.054135e-02 1.491273e-02 -1.136161e-02 -1.066183e-02 6.984654e-04 5.872062e-03 9.481628e-01 -2.793636e-01 9.493522e-01 -2.753938e-01 1.135382e-03 6.870631e-03 2.023544e-02 -2.126634e-02 2.454905e-03 1.965682e-02 1.085355e-03 6.654643e-03 9.484520e-01 -2.773987e-01 2.541442e-03 1.946051e-02 2.034147e-02 -1.783254e-02
1.251250e+11 -1.366582e-02 -1.310775e-02 1.066210e-02 1.496540e-02 9.476036e-01 -2.807732e-01 9.309820e-04 6.257371e-03 1.066492e-02 1.497678e-02 -1.163724e-02 -1.069014e-02 7.275759e-04 5.918007e-03 9.475688e-01 -2.812513e-01 9.487739e-01 -2.772553e-01 1.169502e-03 6.922225e-03 2.038285e-02 -2.149915e-02 2.472914e-03 1.979339e-02 1.119002e-03 6.704781e-03 9.478624e-01 -2.792703e-01 2.560639e-03 1.959522e-02 2.048996e-02 -1.804218e-02
1.260000e+11 -1.396997e-02 -1.314309e-02 1.078623e-02 1.502864e-02 9.470048e-01 -2.826571e-01 9.631330e-04 6.305069e-03 1.078913e-02 1.504008e-02 -1.191480e-02 -1.071686e-02 7.570050e-04 5.963925e-03 9.469708e-01 -2.831376e-01 9.481918e-01 -2.791158e-01 1.203968e-03 6.973772e-03 2.053067e-02 -2.173300e-02 2.491015e-03 1.993000e-02 1.152987e-03 6.754874e-03 9.472691e-01 -2.811406e-01 2.579923e-03 1.972995e-02 2.063887e-02 -1.825291e-02
1.268750e+11 -1.427618e-02 -1.317667e-02 1.091099e-02 1.509113e-02 9.464022e-01 -2.845397e-01 9.956209e-04 6.352724e-03 1.091396e-02 1.510264e-02 -1.219428e-02 -1.074200e-02 7.867527e-04 6.009814e-03 9.463691e-01 -2.850227e-01 9.476059e-01 -2.809750e-01 1.238778e-03 7.025270e-03 2.067890e-02 -2.196789e-02 2.509209e-03 2.006663e-02 1.187310e-03 6.804921e-03 9.466721e-01 -2.830096e-01 2.599294e-03 1.986468e-02 2.078818e-02 -1.846472e-02
1.277500e+11 -1.458445e-02 -1.320847e-02 1.103637e-02 1.515287e-02 9.457957e-01 -2.864211e-01 1.028445e-03 6.400334e-03 1.103941e-02 1.516444e-02 -1.247567e-02 -1.076553e-02 8.168190e-04 6.055674e-03 9.457635e-01 -2.869065e-01 9.470162e-01 -2.828330e-01 1.273932e-03 7.076718e-03 2.082753e-02 -2.220385e-02 2.527495e-03 2.020329e-02 1.221971e-03 6.854921e-03 9.460714e-01 -2.848772e-01 2.618749e-03 1.999943e-02 2.093790e-02 -1.867763e-02
1.286250e+11 -1.489476e-02 -1.323849e-02 1.116236e-02 1.521386e-02 9.451853e-01 -2.883013e-01 1.061606e-03 6.447900e-03 1.116547e-02 1.522548e-02 -1.275897e-02 -1.078747e-02 8.472040e-04 6.101503e-03 9.451541e-01 -2.887890e-01 9.464228e-01 -2.846898e-01 1.309431e-03 7.128115e-03 2.097657e-02 -2.244086e-02 2.545872e-03 2.033997e-02 1.256970e-03 6.904873e-03 9.454670e-01 -2.867436e-01 2.638289e-03 2.013418e-02 2.108803e-02 -1.889165e-02
1.295000e+11 -1.520709e-02 -1.326672e-02 1.128897e-02 1.527409e-02 9.445710e-01 -2.901801e-01 1.095104e-03 6.495419e-03 1.129215e-02 1.528576e-02 -1.304415e-02 -1.080780e-02 8.779078e-04 6.147300e-03 9.445408e-01 -2.906702e-01 9.458256e-01 -2.865453e-01 1.345275e-03 7.179460e-03 2.112601e-02 -2.267895e-02 2.564339e-03 2.047668e-02 1.292308e-03 6.954776e-03 9.448591e-01 -2.886085e-01 2.657911e-03 2.026895e-02 2.123855e-02 -1.910678e-02
1.303750e+11 -1.552145e-02 -1.329315e-02 1.141619e-02 1.533356e-02 9.439529e-01 -2.920577e-01 1.128937e-03 6.542891e-03 1.141943e-02 1.534528e-02 -1.333122e-02 -1.082651e-02 9.089305e-04 6.193065e-03 9.439238e-01 -2.925500e-01 9.452248e-01 -2.883995e-01 1.381462e-03 7.230752e-03 2.127586e-02 -2.291811e-02 2.582897e-03 2.061342e-02 1.327984e-03 7.004631e-03 9.442475e-01 -2.904722e-01 2.677614e-03 2.040374e-02 2.138946e-02 -1.932302e-02
1.312500e+11 -1.583780e-02 -1.331777e-02 1.154401e-02 1.539225e-02 9.433309e-01 -2.939340e-01 1.163107e-03 6.590314e-03 1.154731e-02 1.540402e-02 -1.362016e-02 -1.084360e-02 9.402724e-04 6.238797e-03 9.433030e-01 -2.944286e-01 9.446202e-01 -2.902525e-01 1.417994e-03 7.281990e-03 2.142610e-02 -2.315835e-02 2.601544e-03 2.075017e-02 1.363999e-03 7.054435e-03 9.436324e-01 -2.923344e-01 2.697397e-03 2.053853e-02 2.154077e-02 -1.954039e-02
1.321250e+11 -1.615615e-02 -1.334059e-02 1.167243e-02 1.545018e-02 9.427051e-01 -2.958089e-01 1.197614e-03 6.637688e-03 1.167579e-02 1.546200e-02 -1.391096e-02 -1.085907e-02 9.719337e-04 6.284495e-03 9.426785e-01 -2.963058e-01 9.440119e-01 -2.921042e-01 1.454870e-03 7.333172e-03 2.157675e-02 -2.339968e-02 2.620281e-03 2.088696e-02 1.400354e-03 7.104189e-03 9.430136e-01 -2.941954e-01 2.717259e-03 2.067335e-02 2.169245e-02 -1.975888e-02
1.330000e+11 -1.647648e-02 -1.336158e-02 1.180145e-02 1.550733e-02 9.420754e-01 -2.976825e-01 1.232456e-03 6.685011e-03 1.180486e-02 1.551920e-02 -1.420361e-02 -1.087289e-02 1.003915e-03 6.330158e-03 9.420502e-01 -2.981816e-01 9.433999e-01 -2.939546e-01 1.492091e-03 7.384299e-03 2.172778e-02 -2.364211e-02 2.639105e-03 2.102377e-02 1.437049e-03 7.153891e-03 9.423913e-01 -2.960551e-01 2.737200e-03 2.080818e-02 2.184451e-02 -1.997852e-02
1.338750e+11 -1.679878e-02 -1.338074e-02 1.193106e-02 1.556371e-02 9.414420e-01 -2.995548e-01 1.267636e-03 6.732284e-03 1.193453e-02 1.557561e-02 -1.449811e-02 -1.088508e-02 1.036216e-03 6.375785e-03 9.414182e-01 -3.000562e-01 9.427842e-01 -2.958038e-01 1.529655e-03 7.435369e-03 2.187921e-02 -2.388564e-02 2.658017e-03 2.116060e-02 1.474085e-03 7.203542e-03 9.417654e-01 -2.979134e-01 2.757218e-03 2.094304e-02 2.199694e-02 -2.019929e-02
1.347500e+11 -1.712304e-02 -1.339807e-02 1.206126e-02 1.561930e-02 9.408048e-01 -3.014257e-01 1.303152e-03 6.779504e-03 1.206477e-02 1.563125e-02 -1.479445e-02 -1.089562e-02 1.068838e-03 6.421376e-03 9.407825e-01 -3.019293e-01 9.421649e-01 -2.976516e-01 1.567564e-03 7.486380e-03 2.203102e-02 -2.413028e-02 2.677015e-03 2.129747e-02 1.511462e-03 7.253139e-03 9.411360e-01 -2.997704e-01 2.777312e-03 2.107791e-02 2.214974e-02 -2.042121e-02
1.356250e+11 -1.744926e-02 -1.341356e-02 1.219204e-02 1.567411e-02 9.401638e-01 -3.032952e-01 1.339004e-03 6.826671e-03 1.219560e-02 1.568610e-02 -1.509262e-02 -1.090450e-02 1.101781e-03 6.466930e-03 9.401431e-01 -3.038011e-01 9.415420e-01 -2.994980e-01 1.605818e-03 7.537333e-03 2.218321e-02 -2.437603e-02 2.696099e-03 2.143435e-02 1.549181e-03 7.302683e-03 9.405031e-01 -3.016262e-01 2.797483e-03 2.121281e-02 2.230289e-02 -2.064429e-02
1.365000e+11 -1.777742e-02 -1.342720e-02 1.232339e-02 1.572812e-02 9.395190e-01 -3.051635e-01 1.375194e-03 6.873785e-03 1.232700e-02 1.574016e-02 -1.539262e-02 -1.091172e-02 1.135046e-03 6.512446e-03 9.395000e-01 -3.056716e-01 9.409154e-01 -3.013432e-01 1.644417e-03 7.588226e-03 2.233578e-02 -2.462291e-02 2.715269e-03 2.157127e-02 1.587244e-03 7.352173e-03 9.398666e-01 -3.034806e-01 2.817729e-03 2.134773e-02 2.245639e-02 -2.086852e-02
1.373750e+11 -1.810751e-02 -1.343898e-02 1.245533e-02 1.578135e-02 9.388705e-01 -3.070303e-01 1.411722e-03 6.920844e-03 1.245897e-02 1.579343e-02 -1.569443e-02 -1.091727e-02 1.168633e-03 6.557924e-03 9.388532e-01 -3.075408e-01 9.402852e-01 -3.031870e-01 1.683361e-03 7.639059e-03 2.248873e-02 -2.487092e-02 2.734523e-03 2.170821e-02 1.625650e-03 7.401608e-03 9.392266e-01 -3.053338e-01 2.838050e-03 2.148268e-02 2.261024e-02 -2.109392e-02
1.382500e+11 -1.843953e-02 -1.344890e-02 1.258783e-02 1.583378e-02 9.382182e-01 -3.088958e-01 1.448588e-03 6.967848e-03 1.259151e-02 1.584591e-02 -1.599806e-02 -1.092114e-02 1.202543e-03 6.603361e-03 9.382028e-01 -3.094086e-01 9.396514e-01 -3.050296e-01 1.722651e-03 7.689831e-03 2.264204e-02 -2.512006e-02 2.753861e-03 2.184518e-02 1.664400e-03 7.450987e-03 9.385830e-01 -3.071857e-01 2.858447e-03 2.161766e-02 2.276443e-02 -2.132048e-02
1.391250e+11 -1.877347e-02 -1.345695e-02 1.272090e-02 1.588541e-02 9.375623e-01 -3.107600e-01 1.485792e-03 7.014796e-03 1.272462e-02 1.589759e-02 -1.630349e-02 -1.092333e-02 1.236777e-03 6.648759e-03 9.375488e-01 -3.112750e-01 9.390140e-01 -3.068708e-01 1.762287e-03 7.740541e-03 2.279571e-02 -2.537035e-02 2.773282e-03 2.198218e-02 1.703497e-03 7.500309e-03 9.379360e-01 -3.090364e-01 2.878919e-03 2.175267e-02 2.291895e-02 -2.154822e-02
1.400000e+11 -1.910932e-02 -1.346311e-02 1.285454e-02 1.593625e-02 9.369026e-01 -3.126227e-01 1.523335e-03 7.061686e-03 1.285828e-02 1.594847e-02 -1.661072e-02 -1.092382e-02 1.271335e-03 6.694115e-03 9.368911e-01 -3.131402e-01 9.383730e-01 -3.087106e-01 1.802270e-03 7.791188e-03 2.294974e-02 -2.562178e-02 2.792786e-03 2.211921e-02 1.742940e-03 7.549573e-03 9.372854e-01 -3.108858e-01 2.899466e-03 2.188771e-02 2.307379e-02 -2.177713e-02
1.408750e+11 -1.944707e-02 -1.346739e-02 1.298873e-02 1.598627e-02 9.362392e-01 -3.144842e-01 1.561218e-03 7.108519e-03 1.299250e-02 1.599854e-02 -1.691975e-02 -1.092261e-02 1.306218e-03 6.739429e-03 9.362297e-01 -3.150040e-01 9.377285e-01 -3.105492e-01 1.842599e-03 7.841771e-03 2.310413e-02 -2.587437e-02 2.812372e-03 2.225628e-02 1.782731e-03 7.598779e-03 9.366313e-01 -3.127341e-01 2.920090e-03 2.202279e-02 2.322895e-02 -2.200722e-02
1.417500e+11 -1.978673e-02 -1.346977e-02 1.312347e-02 1.603549e-02 9.355721e-01 -3.163442e-01 1.599441e-03 7.155294e-03 1.312727e-02 1.604781e-02 -1.723057e-02 -1.091969e-02 1.341428e-03 6.784701e-03 9.355648e-01 -3.168665e-01 9.370804e-01 -3.123865e-01 1.883277e-03 7.892290e-03 2.325885e-02 -2.612813e-02 2.832040e-03 2.239338e-02 1.822870e-03 7.647924e-03 9.359737e-01 -3.145811e-01 2.940789e-03 2.215791e-02 2.338442e-02 -2.223850e-02
1.426250e+11 -2.012827e-02 -1.347025e-02 1.325877e-02 1.608391e-02 9.349014e-01 -3.182030e-01 1.638005e-03 7.202009e-03 1.326259e-02 1.609628e-02 -1.754318e-02 -1.091505e-02 1.376965e-03 6.829928e-03 9.348962e-01 -3.187277e-01 9.364288e-01 -3.142224e-01 1.924302e-03 7.942744e-03 2.341391e-02 -2.638305e-02 2.851789e-03 2.253051e-02 1.863360e-03 7.697009e-03 9.353126e-01 -3.164269e-01 2.961566e-03 2.229306e-02 2.354019e-02 -2.247096e-02
1.435000e+11 -2.047169e-02 -1.346881e-02 1.339461e-02 1.613150e-02 9.342269e-01 -3.200603e-01 1.676910e-03 7.248663e-03 1.339845e-02 1.614393e-02 -1.785756e-02 -1.090867e-02 1.412829e-03 6.875111e-03 9.342240e-01 -3.205876e-01 9.357736e-01 -3.160570e-01 1.965677e-03 7.993131e-03 2.356931e-02 -2.663914e-02 2.871620e-03 2.266767e-02 1.904201e-03 7.746031e-03 9.346479e-01 -3.182715e-01 2.982420e-03 2.242826e-02 2.369625e-02 -2.270462e-02
1.443750e+11 -2.081700e-02 -1.346544e-02 1.353099e-02 1.617829e-02 9.335488e-01 -3.219164e-01 1.716158e-03 7.295256e-03 1.353486e-02 1.619077e-02 -1.817372e-02 -1.090056e-02 1.449023e-03 6.920247e-03 9.335481e-01 -3.224463e-01 9.351149e-01 -3.178904e-01 2.007402e-03 8.043452e-03 2.372503e-02 -2.689641e-02 2.891531e-03 2.280488e-02 1.945394e-03 7.794990e-03 9.339796e-01 -3.201149e-01 3.003354e-03 2.256351e-02 2.385261e-02 -2.293947e-02
1.452500e+11 -2.116417e-02 -1.346014e-02 1.366792e-02 1.622425e-02 9.328671e-01 -3.237711e-01 1.755750e-03 7.341788e-03 1.367180e-02 1.623680e-02 -1.849165e-02 -1.089069e-02 1.485546e-03 6.965337e-03 9.328687e-01 -3.243036e-01 9.344526e-01 -3.197224e-01 2.049477e-03 8.093704e-03 2.388107e-02 -2.715486e-02 2.911524e-03 2.294212e-02 1.986941e-03 7.843884e-03 9.333078e-01 -3.219572e-01 3.024367e-03 2.269879e-02 2.400924e-02 -2.317551e-02
1.461250e+11 -2.151321e-02 -1.345289e-02 1.380537e-02 1.626940e-02 9.321816e-01 -3.256245e-01 1.795685e-03 7.388256e-03 1.380927e-02 1.628201e-02 -1.881134e-02 -1.087905e-02 1.522400e-03 7.010379e-03 9.321857e-01 -3.261597e-01 9.337868e-01 -3.215532e-01 2.091903e-03 8.143888e-03 2.403742e-02 -2.741450e-02 2.931598e-03 2.307941e-02 2.028842e-03 7.892712e-03 9.326325e-01 -3.237983e-01 3.045462e-03 2.283413e-02 2.416615e-02 -2.341276e-02
1.470000e+11 -2.186411e-02 -1.344369e-02 1.394336e-02 1.631372e-02 9.314925e-01 -3.274766e-01 1.835966e-03 7.434659e-03 1.394728e-02 1.632640e-02 -1.913280e-02 -1.086564e-02 1.559587e-03 7.055372e-03 9.314990e-01 -3.280145e-01 9.331176e-01 -3.233827e-01 2.134682e-03 8.194003e-03 2.419407e-02 -2.767533e-02 2.951753e-03 2.321674e-02 2.071099e-03 7.941472e-03 9.319535e-01 -3.256382e-01 3.066639e-03 2.296952e-02 2.432332e-02 -2.365120e-02
1.478750e+11 -2.221686e-02 -1.343252e-02 1.408188e-02 1.635721e-02 9.307998e-01 -3.293274e-01 1.876592e-03 7.480998e-03 1.408581e-02 1.636996e-02 -1.945600e-02 -1.085045e-02 1.597106e-03 7.100314e-03 9.308087e-01 -3.298681e-01 9.324447e-01 -3.252109e-01 2.177814e-03 8.244046e-03 2.435102e-02 -2.793736e-02 2.971989e-03 2.335411e-02 2.113713e-03 7.990164e-03 9.312710e-01 -3.274770e-01 3.087901e-03 2.310496e-02 2.448076e-02 -2.389085e-02
1.487500e+11 -2.257146e-02 -1.341937e-02 1.422092e-02 1.639988e-02 9.301034e-01 -3.311768e-01 1.917566e-03 7.527271e-03 1.422487e-02 1.641270e-02 -1.978096e-02 -1.083345e-02 1.634960e-03 7.145205e-03 9.301148e-01 -3.317204e-01 9.317684e-01 -3.270379e-01 2.221301e-03 8.294018e-03 2.450826e-02 -2.820059e-02 2.992308e-03 2.349153e-02 2.156686e-03 8.038784e-03 9.305848e-01 -3.293146e-01 3.109249e-03 2.324046e-02 2.463845e-02 -2.413171e-02
1.496250e+11 -2.292790e-02 -1.340423e-02 1.436049e-02 1.644171e-02 9.294033e-01 -3.330250e-01 1.958888e-03 7.573476e-03 1.436445e-02 1.645461e-02 -2.010766e-02 -1.081464e-02 1.673149e-03 7.190044e-03 9.294172e-01 -3.335715e-01 9.310885e-01 -3.288636e-01 2.265142e-03 8.343917e-03 2.466578e-02 -2.846503e-02 3.012709e-03 2.362899e-02 2.200018e-03 8.087333e-03 9.298950e-01 -3.311512e-01 3.130684e-03 2.337601e-02 2.479639e-02 -2.437377e-02
1.505000e+11 -2.328618e-02 -1.338709e-02 1.450057e-02 1.648271e-02 9.286996e-01 -3.348719e-01 2.000559e-03 7.619612e-03 1.450455e-02 1.649569e-02 -2.043610e-02 -1.079401e-02 1.711674e-03 7.234828e-03 9.287160e-01 -3.354214e-01 9.304051e-01 -3.306881e-01 2.309340e-03 8.393742e-03 2.482358e-02 -2.873067e-02 3.033193e-03 2.376651e-02 2.243710e-03 8.135807e-03 9.292015e-01 -3.329865e-01 3.152210e-03 2.351161e-02 2.495456e-02 -2.461705e-02
1.513750e+11 -2.364628e-02 -1.336792e-02 1.464116e-02 1.652287e-02 9.279921e-01 -3.367175e-01 2.042580e-03 7.665679e-03 1.464516e-02 1.653594e-02 -2.076627e-02 -1.077153e-02 1.750536e-03 7.279556e-03 9.280111e-01 -3.372701e-01 9.297182e-01 -3.325113e-01 2.353895e-03 8.443492e-03 2.498164e-02 -2.899753e-02 3.053760e-03 2.390407e-02 2.287764e-03 8.184206e-03 9.285044e-01 -3.348207e-01 3.173827e-03 2.364728e-02 2.511297e-02 -2.486153e-02
1.522500e+11 -2.400821e-02 -1.334673e-02 1.478227e-02 1.656219e-02 9.272810e-01 -3.385619e-01 2.084952e-03 7.711675e-03 1.478629e-02 1.657534e-02 -2.109816e-02 -1.074720e-02 1.789737e-03 7.324228e-03 9.273026e-01 -3.391175e-01 9.290278e-01 -3.343333e-01 2.398808e-03 8.493166e-03 2.513996e-02 -2.926561e-02 3.074413e-03 2.404169e-02 2.332180e-03 8.232527e-03 9.278036e-01 -3.366538e-01 3.195537e-03 2.378301e-02 2.527161e-02 -2.510723e-02
1.531250e+11 -2.437195e-02 -1.332350e-02 1.492388e-02 1.660067e-02 9.265663e-01 -3.404050e-01 2.127676e-03 7.757598e-03 1.492792e-02 1.661391e-02 -2.143178e-02 -1.072101e-02 1.829278e-03 7.368841e-03 9.265904e-01 -3.409638e-01 9.283337e-01 -3.361541e-01 2.444080e-03 8.542762e-03 2.529854e-02 -2.953490e-02 3.095151e-03 2.417936e-02 2.376961e-03 8.280769e-03 9.270991e-01 -3.384857e-01 3.217344e-03 2.391879e-02 2.543047e-02 -2.535414e-02
1.540000e+11 -2.473750e-02 -1.329820e-02 1.506601e-02 1.663830e-02 9.258478e-01 -3.422468e-01 2.170754e-03 7.803448e-03 1.507006e-02 1.665164e-02 -2.176710e-02 -1.069293e-02 1.869159e-03 7.413394e-03 9.258745e-01 -3.428088e-01 9.276362e-01 -3.379737e-01 2.489713e-03 8.592280e-03 2.545736e-02 -2.980542e-02 3.115975e-03 2.431710e-02 2.422106e-03 8.328929e-03 9.263909e-01 -3.403165e-01 3.239249e-03 2.405464e-02 2.558955e-02 -2.560227e-02
1.548750e+11 -2.510486e-02 -1.327084e-02 1.520863e-02 1.667508e-02 9.251256e-01 -3.440874e-01 2.214187e-03 7.849222e-03 1.521271e-02 1.668852e-02 -2.210413e-02 -1.066296e-02 1.909381e-03 7.457886e-03 9.251549e-01 -3.446526e-01 9.269351e-01 -3.397921e-01 2.535708e-03 8.641717e-03 2.561642e-02 -3.007716e-02 3.136888e-03 2.445488e-02 2.467616e-03 8.377006e-03 9.256789e-01 -3.421461e-01 3.261253e-03 2.419055e-02 2.574884e-02 -2.585161e-02
1.557500e+11 -2.547400e-02 -1.324139e-02 1.535175e-02 1.671101e-02 9.243997e-01 -3.459267e-01 2.257975e-03 7.894920e-03 1.535585e-02 1.672455e-02 -2.244285e-02 -1.063108e-02 1.949947e-03 7.502315e-03 9.244316e-01 -3.464952e-01 9.262304e-01 -3.416092e-01 2.582065e-03 8.691072e-03 2.577571e-02 -3.035013e-02 3.157890e-03 2.459273e-02 2.513493e-03 8.424998e-03 9.249632e-01 -3.439745e-01 3.283361e-03 2.432653e-02 2.590833e-02 -2.610217e-02
1.566250e+11 -2.584493e-02 -1.320984e-02 1.549537e-02 1.674609e-02 9.236701e-01 -3.477648e-01 2.302119e-03 7.940539e-03 1.549950e-02 1.675972e-02 -2.278326e-02 -1.059727e-02 1.990856e-03 7.546679e-03 9.237045e-01 -3.483367e-01 9.255221e-01 -3.434252e-01 2.628786e-03 8.740345e-03 2.593523e-02 -3.062433e-02 3.178982e-03 2.473064e-02 2.559738e-03 8.472903e-03 9.242436e-01 -3.458018e-01 3.305572e-03 2.446257e-02 2.606802e-02 -2.635395e-02
1.575000e+11 -2.621764e-02 -1.317617e-02 1.563948e-02 1.678030e-02 9.229368e-01 -3.496016e-01 2.346622e-03 7.986079e-03 1.564364e-02 1.679404e-02 -2.312535e-02 -1.056153e-02 2.032110e-03 7.590977e-03 9.229737e-01 -3.501769e-01 9.248103e-01 -3.452399e-01 2.675871e-03 8.789533e-03 2.609496e-02 -3.089977e-02 3.200166e-03 2.486861e-02 2.606350e-03 8.520718e-03 9.235203e-01 -3.476279e-01 3.327891e-03 2.459867e-02 2.622791e-02 -2.660696e-02
1.583750e+11 -2.659211e-02 -1.314037e-02 1.578408e-02 1.681366e-02 9.221997e-01 -3.514372e-01 2.391483e-03 8.031537e-03 1.578827e-02 1.682750e-02 -2.346912e-02 -1.052383e-02 2.073709e-03 7.635207e-03 9.222391e-01 -3.520159e-01 9.240948e-01 -3.470535e-01 2.723323e-03 8.838635e-03 2.625490e-02 -3.117643e-02 3.221444e-03 2.500665e-02 2.653332e-03 8.568442e-03 9.227932e-01 -3.494527e-01 3.350318e-03 2.473484e-02 2.638798e-02 -2.686118e-02
1.592500e+11 -2.696835e-02 -1.310243e-02 1.592916e-02 1.684615e-02 9.214588e-01 -3.532715e-01 2.436704e-03 8.076912e-03 1.593340e-02 1.686010e-02 -2.381454e-02 -1.048415e-02 2.115655e-03 7.679367e-03 9.215008e-01 -3.538537e-01 9.233757e-01 -3.488659e-01 2.771142e-03 8.887649e-03 2.641504e-02 -3.145434e-02 3.242817e-03 2.514475e-02 2.700683e-03 8.616073e-03 9.220622e-01 -3.512763e-01 3.372857e-03 2.487107e-02 2.654824e-02 -2.711663e-02
1.601250e+11 -2.734634e-02 -1.306232e-02 1.607473e-02 1.687777e-02 9.207142e-01 -3.551046e-01 2.482286e-03 8.122203e-03 1.607901e-02 1.689183e-02 -2.416161e-02 -1.044250e-02 2.157948e-03 7.723455e-03 9.207586e-01 -3.556903e-01 9.226530e-01 -3.506770e-01 2.819328e-03 8.936574e-03 2.657538e-02 -3.173348e-02 3.264287e-03 2.528292e-02 2.748404e-03 8.663608e-03 9.213274e-01 -3.530987e-01 3.395509e-03 2.500736e-02 2.670868e-02 -2.737330e-02
1.610000e+11 -2.772606e-02 -1.302004e-02 1.622078e-02 1.690852e-02 9.199657e-01 -3.569364e-01 2.528229e-03 8.167407e-03 1.622510e-02 1.692269e-02 -2.451032e-02 -1.039884e-02 2.200590e-03 7.767470e-03 9.200126e-01 -3.575256e-01 9.219266e-01 -3.524870e-01 2.867884e-03 8.985407e-03 2.673591e-02 -3.201386e-02 3.285856e-03 2.542116e-02 2.796496e-03 8.711046e-03 9.205888e-01 -3.549198e-01 3.418276e-03 2.514373e-02 2.686930e-02 -2.763120e-02
1.618750e+11 -2.810752e-02 -1.297556e-02 1.636731e-02 1.693839e-02 9.192135e-01 -3.587670e-01 2.574536e-03 8.212522e-03 1.637167e-02 1.695268e-02 -2.486066e-02 -1.035316e-02 2.243580e-03 7.811409e-03 9.192628e-01 -3.593598e-01 9.211966e-01 -3.542958e-01 2.916810e-03 9.034148e-03 2.689663e-02 -3.229549e-02 3.307525e-03 2.555946e-02 2.844959e-03 8.758384e-03 9.198462e-01 -3.567397e-01 3.441160e-03 2.528015e-02 2.703009e-02 -2.789033e-02
1.627500e+11 -2.849070e-02 -1.292887e-02 1.651432e-02 1.696739e-02 9.184574e-01 -3.605964e-01 2.621206e-03 8.257547e-03 1.651873e-02 1.698178e-02 -2.521261e-02 -1.030546e-02 2.286921e-03 7.855272e-03 9.185092e-01 -3.611926e-01 9.204629e-01 -3.561033e-01 2.966107e-03 9.082794e-03 2.705752e-02 -3.257835e-02 3.329297e-03 2.569784e-02 2.893793e-03 8.805621e-03 9.190998e-01 -3.585582e-01 3.464163e-03 2.541664e-02 2.719104e-02 -2.815068e-02
1.636250e+11 -2.887558e-02 -1.287996e-02 1.666179e-02 1.699550e-02 9.176975e-01 -3.624245e-01 2.668241e-03 8.302481e-03 1.666626e-02 1.701001e-02 -2.556618e-02 -1.025571e-02 2.330612e-03 7.899055e-03 9.177516e-01 -3.630243e-01 9.197255e-01 -3.579097e-01 3.015775e-03 9.131344e-03 2.721858e-02 -3.286247e-02 3.351172e-03 2.583628e-02 2.943000e-03 8.852753e-03 9.183495e-01 -3.603754e-01 3.487287e-03 2.555319e-02 2.735216e-02 -2.841227e-02
1.645000e+11 -2.926216e-02 -1.282881e-02 1.680974e-02 1.702272e-02 9.169337e-01 -3.642513e-01 2.715641e-03 8.347320e-03 1.681426e-02 1.703735e-02 -2.592134e-02 -1.020390e-02 2.374654e-03 7.942758e-03 9.169902e-01 -3.648546e-01 9.189844e-01 -3.597148e-01 3.065817e-03 9.179796e-03 2.737981e-02 -3.314782e-02 3.373154e-03 2.597480e-02 2.992579e-03 8.899780e-03 9.175953e-01 -3.621913e-01 3.510533e-03 2.568981e-02 2.751344e-02 -2.867509e-02
1.653750e+11 -2.965042e-02 -1.277540e-02 1.695815e-02 1.704906e-02 9.161661e-01 -3.660768e-01 2.763408e-03 8.392063e-03 1.696273e-02 1.706379e-02 -2.627807e-02 -1.015002e-02 2.419047e-03 7.986378e-03 9.162249e-01 -3.666837e-01 9.182395e-01 -3.615187e-01 3.116232e-03 9.228147e-03 2.754120e-02 -3.343443e-02 3.395243e-03 2.611339e-02 3.042530e-03 8.946698e-03 9.168371e-01 -3.640058e-01 3.533903e-03 2.582649e-02 2.767487e-02 -2.893915e-02
1.662500e+11 -3.004036e-02 -1.271972e-02 1.710702e-02 1.707450e-02 9.153945e-01 -3.679010e-01 2.811541e-03 8.436709e-03 1.711166e-02 1.708935e-02 -2.663638e-02 -1.009405e-02 2.463794e-03 8.029913e-03 9.154557e-01 -3.685115e-01 9.174910e-01 -3.633214e-01 3.167022e-03 9.276396e-03 2.770274e-02 -3.372228e-02 3.417443e-03 2.625205e-02 3.092854e-03 8.993507e-03 9.160751e-01 -3.658189e-01 3.557399e-03 2.596322e-02 2.783646e-02 -2.920444e-02
1.671250e+11 -3.043196e-02 -1.266175e-02 1.725635e-02 1.709904e-02 9.146191e-01 -3.697239e-01 2.860042e-03 8.481255e-03 1.726106e-02 1.711400e-02 -2.699624e-02 -1.003597e-02 2.508893e-03 8.073362e-03 9.146825e-01 -3.703380e-01 9.167386e-01 -3.651228e-01 3.218187e-03 9.324542e-03 2.786443e-02 -3.401139e-02 3.439754e-03 2.639078e-02 3.143551e-03 9.040204e-03 9.153091e-01 -3.676307e-01 3.581021e-03 2.610002e-02 2.799819e-02 -2.947097e-02
1.680000e+11 -3.082520e-02 -1.260148e-02 1.740613e-02 1.712268e-02 9.138397e-01 -3.715456e-01 2.908912e-03 8.525699e-03 1.741091e-02 1.713775e-02 -2.735764e-02 -9.975785e-03 2.554345e-03 8.116723e-03 9.139054e-01 -3.721631e-01 9.159826e-01 -3.669230e-01 3.269729e-03 9.372581e-03 2.802626e-02 -3.430175e-02 3.462179e-03 2.652959e-02 3.194621e-03 9.086788e-03 9.145393e-01 -3.694409e-01 3.604772e-03 2.623688e-02 2.816006e-02 -2.973875e-02
1.688750e+11 -3.122007e-02 -1.253890e-02 1.755637e-02 1.714541e-02 9.130564e-01 -3.733658e-01 2.958151e-03 8.570039e-03 1.756122e-02 1.716059e-02 -2.772057e-02 -9.913467e-03 2.600152e-03 8.159993e-03 9.131244e-01 -3.739869e-01 9.152227e-01 -3.687218e-01 3.321647e-03 9.420512e-03 2.818824e-02 -3.459336e-02 3.484719e-03 2.666847e-02 3.246064e-03 9.133255e-03 9.137655e-01 -3.712497e-01 3.628651e-03 2.637380e-02 2.832208e-02 -3.000777e-02
1.697500e+11 -3.161656e-02 -1.247398e-02 1.770706e-02 1.716723e-02 9.122692e-01 -3.751848e-01 3.007759e-03 8.614274e-03 1.771198e-02 1.718253e-02 -2.808502e-02 -9.849007e-03 2.646312e-03 8.203171e-03 9.123394e-01 -3.758093e-01 9.144590e-01 -3.705194e-01 3.373942e-03 9.468333e-03 2.835034e-02 -3.488622e-02 3.507376e-03 2.680742e-02 3.297880e-03 9.179605e-03 9.129877e-01 -3.730571e-01 3.652660e-03 2.651078e-02 2.848423e-02 -3.027804e-02
1.706250e+11 -3.201466e-02 -1.240671e-02 1.785819e-02 1.718814e-02 9.114780e-01 -3.770024e-01 3.057738e-03 8.658400e-03 1.786319e-02 1.720354e-02 -2.845096e-02 -9.782393e-03 2.692828e-03 8.246256e-03 9.115504e-01 -3.776304e-01 9.136916e-01 -3.723157e-01 3.426616e-03 9.516043e-03 2.851257e-02 -3.518034e-02 3.530153e-03 2.694645e-02 3.350070e-03 9.225836e-03 9.122061e-01 -3.748629e-01 3.676799e-03 2.664781e-02 2.864652e-02 -3.054956e-02
1.715000e+11 -3.241434e-02 -1.233709e-02 1.800976e-02 1.720813e-02 9.106828e-01 -3.788186e-01 3.108087e-03 8.702417e-03 1.801484e-02 1.722363e-02 -2.881838e-02 -9.713612e-03 2.739698e-03 8.289245e-03 9.107575e-01 -3.794500e-01 9.129203e-01 -3.741107e-01 3.479668e-03 9.563638e-03 2.867493e-02 -3.547572e-02 3.553050e-03 2.708555e-02 3.402632e-03 9.271946e-03 9.114205e-01 -3.766672e-01 3.701070e-03 2.678490e-02 2.880893e-02 -3.082233e-02
1.723750e+11 -3.281560e-02 -1.226509e-02 1.816177e-02 1.722720e-02 9.098837e-01 -3.806334e-01 3.158808e-03 8.746322e-03 1.816693e-02 1.724280e-02 -2.918728e-02 -9.642653e-03 2.786924e-03 8.332136e-03 9.099606e-01 -3.812682e-01 9.121452e-01 -3.759044e-01 3.533099e-03 9.611118e-03 2.883741e-02 -3.577236e-02 3.576070e-03 2.722472e-02 3.455567e-03 9.317933e-03 9.106311e-01 -3.784699e-01 3.725473e-03 2.692204e-02 2.897148e-02 -3.109636e-02
1.732500e+11 -3.321841e-02 -1.219070e-02 1.831421e-02 1.724533e-02 9.090806e-01 -3.824468e-01 3.209900e-03 8.790113e-03 1.831946e-02 1.726104e-02 -2.955762e-02 -9.569504e-03 2.834505e-03 8.374928e-03 9.091597e-01 -3.830850e-01 9.113662e-01 -3.776967e-01 3.586910e-03 9.658479e-03 2.900000e-02 -3.607026e-02 3.599214e-03 2.736396e-02 3.508876e-03 9.363795e-03 9.098377e-01 -3.802711e-01 3.750008e-03 2.705924e-02 2.913414e-02 -3.137166e-02
1.741250e+11 -3.362276e-02 -1.211391e-02 1.846709e-02 1.726254e-02 9.082735e-01 -3.842587e-01 3.261364e-03 8.833788e-03 1.847242e-02 1.727835e-02 -2.992941e-02 -9.494155e-03 2.882443e-03 8.417620e-03 9.083548e-01 -3.849002e-01 9.105835e-01 -3.794876e-01 3.641101e-03 9.705721e-03 2.916270e-02 -3.636942e-02 3.622484e-03 2.750328e-02 3.562557e-03 9.409532e-03 9.090405e-01 -3.820707e-01 3.774675e-03 2.719649e-02 2.929692e-02 -3.164821e-02
1.750000e+11 -3.402865e-02 -1.203470e-02 1.862038e-02 1.727881e-02 9.074623e-01 -3.860692e-01 3.313200e-03 8.877346e-03 1.862580e-02 1.729472e-02 -3.030262e-02 -9.416594e-03 2.930736e-03 8.460208e-03 9.075459e-01 -3.867140e-01 9.097968e-01 -3.812771e-01 3.695672e-03 9.752841e-03 2.932550e-02 -3.666985e-02 3.645880e-03 2.764267e-02 3.616611e-03 9.455141e-03 9.082393e-01 -3.838686e-01 3.799474e-03 2.733380e-02 2.945982e-02 -3.192603e-02
1.758750e+11 -3.443604e-02 -1.195307e-02 1.877410e-02 1.729414e-02 9.066472e-01 -3.878783e-01 3.365409e-03 8.920784e-03 1.877961e-02 1.731014e-02 -3.067724e-02 -9.336813e-03 2.979385e-03 8.502692e-03 9.067331e-01 -3.885263e-01 9.090064e-01 -3.830653e-01 3.750624e-03 9.799837e-03 2.948841e-02 -3.697154e-02 3.669405e-03 2.778213e-02 3.671038e-03 9.500621e-03 9.074344e-01 -3.856650e-01 3.824406e-03 2.747116e-02 2.962283e-02 -3.220513e-02
1.767500e+11 -3.484492e-02 -1.186901e-02 1.892824e-02 1.730853e-02 9.058280e-01 -3.896858e-01 3.417991e-03 8.964100e-03 1.893384e-02 1.732462e-02 -3.105325e-02 -9.254800e-03 3.028391e-03 8.545070e-03 9.059162e-01 -3.903370e-01 9.082120e-01 -3.848520e-01 3.805957e-03 9.846707e-03 2.965142e-02 -3.727450e-02 3.693059e-03 2.792167e-02 3.725837e-03 9.545971e-03 9.066255e-01 -3.874596e-01 3.849470e-03 2.760856e-02 2.978595e-02 -3.248550e-02
1.776250e+11 -3.525528e-02 -1.178249e-02 1.908279e-02 1.732197e-02 9.050049e-01 -3.914918e-01 3.470945e-03 9.007293e-03 1.908848e-02 1.733815e-02 -3.143063e-02 -9.170547e-03 3.077754e-03 8.587341e-03 9.050953e-01 -3.921461e-01 9.074138e-01 -3.866372e-01 3.861672e-03 9.893449e-03 2.981452e-02 -3.757874e-02 3.716844e-03 2.806127e-02 3.781009e-03 9.591189e-03 9.058128e-01 -3.892526e-01 3.874666e-03 2.774602e-02 2.994917e-02 -3.276716e-02
1.785000e+11 -3.566710e-02 -1.169351e-02 1.923775e-02 1.733445e-02 9.041777e-01 -3.932963e-01 3.524273e-03 9.050360e-03 1.924352e-02 1.735072e-02 -3.180938e-02 -9.084046e-03 3.127473e-03 8.629502e-03 9.042705e-01 -3.939537e-01 9.066117e-01 -3.884210e-01 3.917767e-03 9.940062e-03 2.997771e-02 -3.788424e-02 3.740760e-03 2.820094e-02 3.836554e-03 9.636275e-03 9.049963e-01 -3.910440e-01 3.899993e-03 2.788353e-02 3.011249e-02 -3.305009e-02
1.793750e+11 -3.608037e-02 -1.160206e-02 1.939311e-02 1.734598e-02 9.033465e-01 -3.950992e-01 3.577974e-03 9.093300e-03 1.939898e-02 1.736233e-02 -3.218947e-02 -8.995287e-03 3.177549e-03 8.671553e-03 9.034417e-01 -3.957596e-01 9.058058e-01 -3.902033e-01 3.974245e-03 9.986543e-03 3.014099e-02 -3.819103e-02 3.764810e-03 2.834068e-02 3.892471e-03 9.681225e-03 9.041759e-01 -3.928336e-01 3.925452e-03 2.802109e-02 3.027591e-02 -3.333432e-02
1.802500e+11 -3.649506e-02 -1.150812e-02 1.954887e-02 1.735655e-02 9.025112e-01 -3.969005e-01 3.632049e-03 9.136111e-03 1.955483e-02 1.737298e-02 -3.257090e-02 -8.904263e-03 3.227982e-03 8.713491e-03 9.026089e-01 -3.975640e-01 9.049960e-01 -3.919841e-01 4.031104e-03 1.003289e-02 3.030435e-02 -3.849909e-02 3.788992e-03 2.848049e-02 3.948761e-03 9.726041e-03 9.033518e-01 -3.946216e-01 3.951041e-03 2.815870e-02 3.043941e-02 -3.361984e-02
1.811250e+11 -3.691116e-02 -1.141170e-02 1.970503e-02 1.736615e-02 9.016720e-01 -3.987003e-01 3.686497e-03 9.178791e-03 1.971107e-02 1.738267e-02 -3.295364e-02 -8.810967e-03 3.278772e-03 8.755316e-03 9.017721e-01 -3.993667e-01 9.041823e-01 -3.937633e-01 4.088345e-03 1.007910e-02 3.046778e-02 -3.880843e-02 3.813309e-03 2.862037e-02 4.005423e-03 9.770719e-03 9.025239e-01 -3.964078e-01 3.976761e-03 2.829635e-02 3.060300e-02 -3.390666e-02
1.820000e+11 -3.732866e-02 -1.131278e-02 1.986157e-02 1.737478e-02 9.008287e-01 -4.004984e-01 3.741318e-03 9.221338e-03 1.986771e-02 1.739138e-02 -3.333768e-02 -8.715390e-03 3.329920e-03 8.797026e-03 9.009314e-01 -4.011677e-01 9.033648e-01 -3.955410e-01 4.145968e-03 1.012518e-02 3.063130e-02 -3.911906e-02 3.837761e-03 2.876031e-02 4.062458e-03 9.815260e-03 9.016922e-01 -3.981923e-01 4.002610e-03 2.843406e-02 3.076668e-02 -3.419479e-02
1.828750e+11 -3.774753e-02 -1.121134e-02 2.001850e-02 1.738244e-02 8.999814e-01 -4.022948e-01 3.796513e-03 9.263751e-03 2.002473e-02 1.739911e-02 -3.372301e-02 -8.617527e-03 3.381424e-03 8.838620e-03 9.000867e-01 -4.029670e-01 9.025434e-01 -3.973171e-01 4.203973e-03 1.017112e-02 3.079488e-02 -3.943098e-02 3.862348e-03 2.890032e-02 4.119865e-03 9.859663e-03 9.008567e-01 -3.999751e-01 4.028587e-03 2.857182e-02 3.093043e-02 -3.448422e-02
1.837500e+11 -3.816776e-02 -1.110739e-02 2.017581e-02 1.738912e-02 8.991302e-01 -4.040896e-01 3.852082e-03 9.306029e-03 2.018213e-02 1.740587e-02 -3.410961e-02 -8.517370e-03 3.433287e-03 8.880095e-03 8.992381e-01 -4.047647e-01 9.017181e-01 -3.990916e-01 4.262361e-03 1.021691e-02 3.095853e-02 -3.974419e-02 3.887071e-03 2.904039e-02 4.177646e-03 9.903925e-03 9.000176e-01 -4.017561e-01 4.054693e-03 2.870962e-02 3.109425e-02 -3.477496e-02
1.846250e+11 -3.858934e-02 -1.100091e-02 2.033350e-02 1.739482e-02 8.982749e-01 -4.058827e-01 3.908025e-03 9.348168e-03 2.033990e-02 1.741165e-02 -3.449747e-02 -8.414914e-03 3.485507e-03 8.921452e-03 8.983856e-01 -4.065606e-01 9.008891e-01 -4.008645e-01 4.321130e-03 1.026257e-02 3.112224e-02 -4.005869e-02 3.911929e-03 2.918053e-02 4.235799e-03 9.948047e-03 8.991747e-01 -4.035354e-01 4.080926e-03 2.884748e-02 3.125814e-02 -3.506703e-02
1.855000e+11 -3.901225e-02 -1.089189e-02 2.049156e-02 1.739954e-02 8.974156e-01 -4.076741e-01 3.964341e-03 9.390169e-03 2.049804e-02 1.741644e-02 -3.488658e-02 -8.310153e-03 3.538085e-03 8.962689e-03 8.975292e-01 -4.083548e-01 9.000561e-01 -4.026358e-01 4.380282e-03 1.030808e-02 3.128602e-02 -4.037449e-02 3.936924e-03 2.932074e-02 4.294326e-03 9.992026e-03 8.983281e-01 -4.053130e-01 4.107285e-03 2.898538e-02 3.142209e-02 -3.536042e-02
1.863750e+11 -3.943646e-02 -1.078034e-02 2.064998e-02 1.740327e-02 8.965523e-01 -4.094638e-01 4.021031e-03 9.432028e-03 2.065655e-02 1.742023e-02 -3.527691e-02 -8.203080e-03 3.591021e-03 9.003804e-03 8.966688e-01 -4.101473e-01 8.992194e-01 -4.044055e-01 4.439816e-03 1.035345e-02 3.144985e-02 -4.069160e-02 3.962055e-03 2.946100e-02 4.353227e-03 1.003586e-02 8.974778e-01 -4.070888e-01 4.133770e-03 2.912334e-02 3.158610e-02 -3.565514e-02
1.872500e+11 -3.986197e-02 -1.066624e-02 2.080876e-02 1.740600e-02 8.956851e-01 -4.112517e-01 4.078095e-03 9.473746e-03 2.081541e-02 1.742304e-02 -3.566846e-02 -8.093691e-03 3.644315e-03 9.044796e-03 8.958046e-01 -4.119380e-01 8.983788e-01 -4.061735e-01 4.499733e-03 1.039867e-02 3.161373e-02 -4.101001e-02 3.987322e-03 2.960134e-02 4.412502e-03 1.007956e-02 8.966238e-01 -4.088629e-01 4.160381e-03 2.926135e-02 3.175016e-02 -3.595119e-02
1.881250e+11 -4.028877e-02 -1.054958e-02 2.096790e-02 1.740774e-02 8.948139e-01 -4.130379e-01 4.135532e-03 9.515320e-03 2.097463e-02 1.742485e-02 -3.606122e-02 -7.981980e-03 3.697968e-03 9.085664e-03 8.949365e-01 -4.137269e-01 8.975344e-01 -4.079398e-01 4.560032e-03 1.044374e-02 3.177765e-02 -4.132973e-02 4.012725e-03 2.974173e-02 4.472151e-03 1.012311e-02 8.957662e-01 -4.106352e-01 4.187115e-03 2.939941e-02 3.191426e-02 -3.624858e-02
1.890000e+11 -4.071682e-02 -1.043036e-02 2.112739e-02 1.740848e-02 8.939388e-01 -4.148223e-01 4.193344e-03 9.556749e-03 2.113419e-02 1.742566e-02 -3.645517e-02 -7.867942e-03 3.751980e-03 9.126408e-03 8.940645e-01 -4.155140e-01 8.966863e-01 -4.097044e-01 4.620713e-03 1.048866e-02 3.194162e-02 -4.165077e-02 4.038263e-03 2.988218e-02 4.532176e-03 1.016651e-02 8.949049e-01 -4.124058e-01 4.213973e-03 2.953752e-02 3.207840e-02 -3.654731e-02
1.898750e+11 -4.114613e-02 -1.030857e-02 2.128722e-02 1.740821e-02 8.930597e-01 -4.166049e-01 4.251530e-03 9.598032e-03 2.129410e-02 1.742547e-02 -3.685030e-02 -7.751571e-03 3.806351e-03 9.167025e-03 8.931887e-01 -4.172994e-01 8.958343e-01 -4.114673e-01 4.681777e-03 1.053343e-02 3.210563e-02 -4.197312e-02 4.063938e-03 3.002270e-02 4.592576e-03 1.020976e-02 8.940400e-01 -4.141747e-01 4.240954e-03 2.967569e-02 3.224257e-02 -3.684740e-02
1.907500e+11 -4.157668e-02 -1.018421e-02 2.144739e-02 1.740694e-02 8.921767e-01 -4.183857e-01 4.310089e-03 9.639166e-03 2.145434e-02 1.742427e-02 -3.724660e-02 -7.632864e-03 3.861081e-03 9.207515e-03 8.923090e-01 -4.190830e-01 8.949786e-01 -4.132284e-01 4.743223e-03 1.057805e-02 3.226968e-02 -4.229680e-02 4.089747e-03 3.016328e-02 4.653352e-03 1.025287e-02 8.931715e-01 -4.159419e-01 4.268058e-03 2.981392e-02 3.240677e-02 -3.714884e-02
1.916250e+11 -4.200844e-02 -1.005727e-02 2.160789e-02 1.740466e-02 8.912897e-01 -4.201647e-01 4.369023e-03 9.680152e-03 2.161492e-02 1.742206e-02 -3.764405e-02 -7.511816e-03 3.916172e-03 9.247877e-03 8.914256e-01 -4.208647e-01 8.941191e-01 -4.149879e-01 4.805052e-03 1.062252e-02 3.243375e-02 -4.262181e-02 4.115691e-03 3.030392e-02 4.714505e-03 1.029583e-02 8.922993e-01 -4.177073e-01 4.295284e-03 2.995220e-02 3.257098e-02 -3.745164e-02
1.925000e+11 -4.244141e-02 -9.927750e-03 2.176872e-02 1.740137e-02 8.903989e-01 -4.219419e-01 4.428331e-03 9.720987e-03 2.177582e-02 1.741884e-02 -3.804265e-02 -7.388420e-03 3.971623e-03 9.288109e-03 8.905383e-01 -4.226447e-01 8.932558e-01 -4.167456e-01 4.867264e-03 1.066683e-02 3.259785e-02 -4.294814e-02 4.141769e-03 3.044462e-02 4.776036e-03 1.033865e-02 8.914235e-01 -4.194710e-01 4.322631e-03 3.009054e-02 3.273521e-02 -3.775580e-02
1.933750e+11 -4.287558e-02 -9.795637e-03 2.192988e-02 1.739706e-02 8.895042e-01 -4.237172e-01 4.488014e-03 9.761671e-03 2.193704e-02 1.741460e-02 -3.844239e-02 -7.262673e-03 4.027435e-03 9.328211e-03 8.896472e-01 -4.244228e-01 8.923889e-01 -4.185016e-01 4.929859e-03 1.071098e-02 3.276197e-02 -4.327582e-02 4.167981e-03 3.058538e-02 4.837946e-03 1.038131e-02 8.905442e-01 -4.212331e-01 4.350099e-03 3.022894e-02 3.289944e-02 -3.806133e-02
1.942500e+11 -4.331092e-02 -9.660930e-03 2.209135e-02 1.739173e-02 8.886056e-01 -4.254907e-01 4.548071e-03 9.802202e-03 2.209858e-02 1.740935e-02 -3.884325e-02 -7.134570e-03 4.083608e-03 9.368181e-03 8.887524e-01 -4.261992e-01 8.915182e-01 -4.202558e-01 4.992837e-03 1.075498e-02 3.292610e-02 -4.360484e-02 4.194326e-03 3.072621e-02 4.900234e-03 1.042382e-02 8.896612e-01 -4.229934e-01 4.377688e-03 3.036740e-02 3.306368e-02 -3.836824e-02
1.951250e+11 -4.374743e-02 -9.523622e-03 2.225314e-02 1.738538e-02 8.877032e-01 -4.272624e-01 4.608503e-03 9.842579e-03 2.226043e-02 1.740308e-02 -3.924522e-02 -7.004105e-03 4.140143e-03 9.408019e-03 8.878538e-01 -4.279737e-01 8.906438e-01 -4.220082e-01 5.056198e-03 1.079882e-02 3.309025e-02 -4.393520e-02 4.220804e-03 3.086710e-02 4.962903e-03 1.046617e-02 8.887746e-01 -4.247521e-01 4.405399e-03 3.050593e-02 3.322790e-02 -3.867653e-02
1.960000e+11 -4.418510e-02 -9.383710e-03 2.241523e-02 1.737800e-02 8.867969e-01 -4.290322e-01 4.669310e-03 9.882801e-03 2.242259e-02 1.739578e-02 -3.964830e-02 -6.871273e-03 4.197041e-03 9.447723e-03 8.869515e-01 -4.297465e-01 8.897657e-01 -4.237589e-01 5.119943e-03 1.084249e-02 3.325440e-02 -4.426692e-02 4.247413e-03 3.100804e-02 5.025953e-03 1.050838e-02 8.878844e-01 -4.265090e-01 4.433230e-03 3.064451e-02 3.339210e-02 -3.898619e-02
1.968750e+11 -4.462391e-02 -9.241188e-03 2.257762e-02 1.736959e-02 8.858868e-01 -4.308002e-01 4.730493e-03 9.922866e-03 2.258505e-02 1.738745e-02 -4.005248e-02 -6.736070e-03 4.254302e-03 9.487293e-03 8.860454e-01 -4.315174e-01 8.888839e-01 -4.255078e-01 5.184071e-03 1.088601e-02 3.341855e-02 -4.459999e-02 4.274153e-03 3.114905e-02 5.089385e-03 1.055043e-02 8.869907e-01 -4.282644e-01 4.461182e-03 3.078317e-02 3.355629e-02 -3.929725e-02
1.977500e+11 -4.506385e-02 -9.096051e-03 2.274031e-02 1.736016e-02 8.849728e-01 -4.325663e-01 4.792051e-03 9.962774e-03 2.274780e-02 1.737810e-02 -4.045774e-02 -6.598489e-03 4.311927e-03 9.526727e-03 8.851356e-01 -4.332865e-01 8.879985e-01 -4.272549e-01 5.248584e-03 1.092937e-02 3.358269e-02 -4.493443e-02 4.301024e-03 3.129013e-02 5.153201e-03 1.059232e-02 8.860933e-01 -4.300180e-01 4.489255e-03 3.092190e-02 3.372044e-02 -3.960970e-02
1.986250e+11 -4.550491e-02 -8.948294e-03 2.290330e-02 1.734969e-02 8.840551e-01 -4.343305e-01 4.853986e-03 1.000252e-02 2.291085e-02 1.736772e-02 -4.086407e-02 -6.458525e-03 4.369917e-03 9.566024e-03 8.842221e-01 -4.350539e-01 8.871094e-01 -4.290003e-01 5.313482e-03 1.097256e-02 3.374682e-02 -4.527023e-02 4.328025e-03 3.143127e-02 5.217400e-03 1.063405e-02 8.851923e-01 -4.317700e-01 4.517450e-03 3.106069e-02 3.388455e-02 -3.992354e-02
1.995000e+11 -4.594708e-02 -8.797912e-03 2.306657e-02 1.733818e-02 8.831336e-01 -4.360928e-01 4.916298e-03 1.004211e-02 2.307418e-02 1.735630e-02 -4.127148e-02 -6.316173e-03 4.428272e-03 9.605183e-03 8.833048e-01 -4.368194e-01 8.862167e-01 -4.307439e-01 5.378764e-03 1.101559e-02 3.391094e-02 -4.560740e-02 4.355155e-03 3.157247e-02 5.281986e-03 1.067563e-02 8.842877e-01 -4.335204e-01 4.545766e-03 3.119956e-02 3.404861e-02 -4.023879e-02
2.003750e+11 -4.639034e-02 -8.644899e-03 2.323012e-02 1.732563e-02 8.822082e-01 -4.378533e-01 4.978986e-03 1.008154e-02 2.323779e-02 1.734385e-02 -4.167995e-02 -6.171425e-03 4.486994e-03 9.644203e-03 8.823839e-01 -4.385831e-01 8.853203e-01 -4.324857e-01 5.444432e-03 1.105845e-02 3.407503e-02 -4.594596e-02 4.382413e-03 3.171374e-02 5.346958e-03 1.071705e-02 8.833796e-01 -4.352691e-01 4.574206e-03 3.133850e-02 3.421261e-02 -4.055544e-02
2.012500e+11 -4.683469e-02 -8.489250e-03 2.339394e-02 1.731204e-02 8.812792e-01 -4.396120e-01 5.042053e-03 1.012081e-02 2.340168e-02 1.733035e-02 -4.208947e-02 -6.024275e-03 4.546082e-03 9.683082e-03 8.814593e-01 -4.403451e-01 8.844204e-01 -4.342257e-01 5.510486e-03 1.110115e-02 3.423909e-02 -4.628589e-02 4.409800e-03 3.185507e-02 5.412317e-03 1.075830e-02 8.824677e-01 -4.370163e-01 4.602768e-03 3.147751e-02 3.437656e-02 -4.087349e-02
2.021250e+11 -4.728012e-02 -8.330960e-03 2.355804e-02 1.729741e-02 8.803463e-01 -4.413688e-01 5.105497e-03 1.015991e-02 2.356584e-02 1.731582e-02 -4.250003e-02 -5.874718e-03 4.605539e-03 9.721820e-03 8.805309e-01 -4.421053e-01 8.835168e-01 -4.359640e-01 5.576927e-03 1.114368e-02 3.440311e-02 -4.662721e-02 4.437314e-03 3.199647e-02 5.478066e-03 1.079940e-02 8.815523e-01 -4.387618e-01 4.631455e-03 3.161661e-02 3.454043e-02 -4.119296e-02
2.030000e+11 -4.772661e-02 -8.170021e-03 2.372240e-02 1.728173e-02 8.794097e-01 -4.431237e-01 5.169321e-03 1.019885e-02 2.373026e-02 1.730024e-02 -4.291163e-02 -5.722745e-03 4.665365e-03 9.760416e-03 8.795989e-01 -4.438637e-01 8.826096e-01 -4.377004e-01 5.643754e-03 1.118604e-02 3.456709e-02 -4.696992e-02 4.464954e-03 3.213794e-02 5.544204e-03 1.084032e-02 8.806332e-01 -4.405057e-01 4.660266e-03 3.175578e-02 3.470422e-02 -4.151384e-02
2.038750e+11 -4.817416e-02 -8.006429e-03 2.388703e-02 1.726499e-02 8.784694e-01 -4.448768e-01 5.233524e-03 1.023762e-02 2.389495e-02 1.728361e-02 -4.332425e-02 -5.568349e-03 4.725561e-03 9.798867e-03 8.786632e-01 -4.456203e-01 8.816989e-01 -4.394352e-01 5.710970e-03 1.122823e-02 3.473102e-02 -4.731403e-02 4.492721e-03 3.227948e-02 5.610735e-03 1.088108e-02 8.797105e-01 -4.422479e-01 4.689204e-03 3.189503e-02 3.486792e-02 -4.183613e-02
2.047500e+11 -4.862275e-02 -7.840178e-03 2.405191e-02 1.724721e-02 8.775253e-01 -4.466280e-01 5.298107e-03 1.027623e-02 2.405989e-02 1.726594e-02 -4.373790e-02 -5.411522e-03 4.786129e-03 9.837173e-03 8.777238e-01 -4.473752e-01 8.807845e-01 -4.411681e-01 5.778574e-03 1.127025e-02 3.489489e-02 -4.765954e-02 4.520615e-03 3.242109e-02 5.677657e-03 1.092168e-02 8.787841e-01 -4.439886e-01 4.718269e-03 3.203437e-02 3.503153e-02 -4.215985e-02
2.056250e+11 -4.907239e-02 -7.671259e-03 2.421704e-02 1.722837e-02 8.765775e-01 -4.483774e-01 5.363071e-03 1.031467e-02 2.422509e-02 1.724721e-02 -4.415256e-02 -5.252258e-03 4.847068e-03 9.875332e-03 8.767808e-01 -4.491284e-01 8.798666e-01 -4.428993e-01 5.846567e-03 1.131210e-02 3.505870e-02 -4.800646e-02 4.548634e-03 3.256278e-02 5.744973e-03 1.096210e-02 8.778540e-01 -4.457277e-01 4.747463e-03 3.217378e-02 3.519503e-02 -4.248499e-02
2.065000e+11 -4.952305e-02 -7.499666e-03 2.438242e-02 1.720847e-02 8.756260e-01 -4.501249e-01 5.428417e-03 1.035294e-02 2.439054e-02 1.722743e-02 -4.456823e-02 -5.090546e-03 4.908380e-03 9.913342e-03 8.758340e-01 -4.508798e-01 8.789451e-01 -4.446288e-01 5.914951e-03 1.135378e-02 3.522244e-02 -4.835478e-02 4.576778e-03 3.270453e-02 5.812685e-03 1.100235e-02 8.769202e-01 -4.474651e-01 4.776786e-03 3.231329e-02 3.535842e-02 -4.281155e-02
2.073750e+11 -4.997473e-02 -7.325393e-03 2.454803e-02 1.718751e-02 8.746707e-01 -4.518706e-01 5.494146e-03 1.039104e-02 2.455623e-02 1.720659e-02 -4.498489e-02 -4.926378e-03 4.970067e-03 9.951204e-03 8.748836e-01 -4.526294e-01 8.780201e-01 -4.463565e-01 5.983725e-03 1.139528e-02 3.538609e-02 -4.870452e-02 4.605048e-03 3.284637e-02 5.880792e-03 1.104243e-02 8.759828e-01 -4.492010e-01 4.806241e-03 3.245288e-02 3.552169e-02 -4.313954e-02
2.082500e+11 -5.042743e-02 -7.148431e-03 2.471389e-02 1.716549e-02 8.737118e-01 -4.536145e-01 5.560258e-03 1.042897e-02 2.472215e-02 1.718469e-02 -4.540254e-02 -4.759746e-03 5.032128e-03 9.988913e-03 8.739294e-01 -4.543774e-01 8.770914e-01 -4.480825e-01 6.052892e-03 1.143661e-02 3.554966e-02 -4.905569e-02 4.633443e-03 3.298828e-02 5.949296e-03 1.108233e-02 8.750416e-01 -4.509353e-01 4.835828e-03 3.259255e-02 3.568482e-02 -4.346896e-02
2.091250e+11 -5.088112e-02 -6.968772e-03 2.487997e-02 1.714240e-02 8.727491e-01 -4.553565e-01 5.626754e-03 1.046672e-02 2.488831e-02 1.716172e-02 -4.582117e-02 -4.590639e-03 5.094566e-03 1.002647e-02 8.729716e-01 -4.561236e-01 8.761593e-01 -4.498068e-01 6.122451e-03 1.147776e-02 3.571314e-02 -4.940827e-02 4.661964e-03 3.313026e-02 6.018199e-03 1.112206e-02 8.740966e-01 -4.526679e-01 4.865551e-03 3.273232e-02 3.584782e-02 -4.379981e-02
2.100000e+11 -5.133581e-02 -6.786408e-03 2.504628e-02 1.711825e-02 8.717827e-01 -4.570968e-01 5.693636e-03 1.050430e-02 2.505471e-02 1.713769e-02 -4.624078e-02 -4.419049e-03 5.157382e-03 1.006387e-02 8.720100e-01 -4.578681e-01 8.752235e-01 -4.515293e-01 6.192404e-03 1.151873e-02 3.587651e-02 -4.976229e-02 4.690610e-03 3.327233e-02 6.087501e-03 1.116160e-02 8.731479e-01 -4.543989e-01 4.895409e-03 3.287217e-02 3.601068e-02 -4.413210e-02
2.108750e+11 -5.179148e-02 -6.601331e-03 2.521282e-02 1.709302e-02 8.708126e-01 -4.588352e-01 5.760904e-03 1.054170e-02 2.522132e-02 1.711260e-02 -4.666135e-02 -4.244964e-03 5.220576e-03 1.010112e-02 8.710447e-01 -4.596109e-01 8.742842e-01 -4.532502e-01 6.262751e-03 1.155952e-02 3.603977e-02 -5.011773e-02 4.719381e-03 3.341448e-02 6.157203e-03 1.120096e-02 8.721955e-01 -4.561283e-01 4.925405e-03 3.301212e-02 3.617338e-02 -4.446582e-02
2.117500e+11 -5.224813e-02 -6.413532e-03 2.537957e-02 1.706672e-02 8.698387e-01 -4.605718e-01 5.828559e-03 1.057893e-02 2.538816e-02 1.708643e-02 -4.708287e-02 -4.068375e-03 5.284150e-03 1.013821e-02 8.700757e-01 -4.613519e-01 8.733414e-01 -4.549693e-01 6.333495e-03 1.160013e-02 3.620291e-02 -5.047461e-02 4.748279e-03 3.355672e-02 6.227306e-03 1.124014e-02 8.712392e-01 -4.578561e-01 4.955540e-03 3.315216e-02 3.633592e-02 -4.480098e-02
2.126250e+11 -5.270574e-02 -6.223000e-03 2.554653e-02 1.703934e-02 8.688611e-01 -4.623067e-01 5.896603e-03 1.061598e-02 2.555521e-02 1.705918e-02 -4.750535e-02 -3.889271e-03 5.348105e-03 1.017514e-02 8.691030e-01 -4.630913e-01 8.723949e-01 -4.566867e-01 6.404635e-03 1.164056e-02 3.636593e-02 -5.083294e-02 4.777303e-03 3.369904e-02 6.297812e-03 1.127913e-02 8.702791e-01 -4.595822e-01 4.985817e-03 3.329229e-02 3.649829e-02 -4.513757e-02
2.135000e+11 -5.316431e-02 -6.029727e-03 2.571370e-02 1.701089e-02 8.678798e-01 -4.640397e-01 5.965036e-03 1.065284e-02 2.572248e-02 1.703086e-02 -4.792876e-02 -3.707640e-03 5.412441e-03 1.021190e-02 8.681265e-01 -4.648290e-01 8.714449e-01 -4.584024e-01 6.476173e-03 1.168080e-02 3.652880e-02 -5.119270e-02 4.806455e-03 3.384144e-02 6.368720e-03 1.131793e-02 8.693153e-01 -4.613067e-01 5.016236e-03 3.343251e-02 3.666048e-02 -4.547560e-02
2.143750e+11 -5.362383e-02 -5.833701e-03 2.588108e-02 1.698135e-02 8.668948e-01 -4.657710e-01 6.033858e-03 1.068953e-02 2.588995e-02 1.700146e-02 -4.835310e-02 -3.523473e-03 5.477160e-03 1.024851e-02 8.671463e-01 -4.665649e-01 8.704913e-01 -4.601164e-01 6.548109e-03 1.172086e-02 3.669154e-02 -5.155391e-02 4.835734e-03 3.398394e-02 6.440032e-03 1.135654e-02 8.683475e-01 -4.630294e-01 5.046801e-03 3.357282e-02 3.682248e-02 -4.581508e-02
2.152500e+11 -5.408429e-02 -5.634914e-03 2.604865e-02 1.695072e-02 8.659060e-01 -4.675004e-01 6.103073e-03 1.072603e-02 2.605763e-02 1.697097e-02 -4.877836e-02 -3.336757e-03 5.542263e-03 1.028495e-02 8.661623e-01 -4.682992e-01 8.695341e-01 -4.618288e-01 6.620446e-03 1.176073e-02 3.685412e-02 -5.191657e-02 4.865141e-03 3.412652e-02 6.511748e-03 1.139495e-02 8.673760e-01 -4.647505e-01 5.077511e-03 3.371323e-02 3.698430e-02 -4.615599e-02
2.161250e+11 -5.454567e-02 -5.433354e-03 2.621641e-02 1.691901e-02 8.649134e-01 -4.692281e-01 6.172679e-03 1.076234e-02 2.622550e-02 1.693939e-02 -4.920452e-02 -3.147481e-03 5.607751e-03 1.032122e-02 8.651745e-01 -4.700317e-01 8.685733e-01 -4.635395e-01 6.693184e-03 1.180041e-02 3.701654e-02 -5.228068e-02 4.894678e-03 3.426920e-02 6.583870e-03 1.143317e-02 8.664005e-01 -4.664699e-01 5.108370e-03 3.385373e-02 3.714591e-02 -4.649834e-02
2.170000e+11 -5.500798e-02 -5.229011e-03 2.638437e-02 1.688621e-02 8.639171e-01 -4.709540e-01 6.242679e-03 1.079847e-02 2.639357e-02 1.690673e-02 -4.963159e-02 -2.955633e-03 5.673625e-03 1.035732e-02 8.641828e-01 -4.717625e-01 8.676089e-01 -4.652484e-01 6.766325e-03 1.183990e-02 3.717879e-02 -5.264625e-02 4.924345e-03 3.441197e-02 6.656396e-03 1.147119e-02 8.654212e-01 -4.681875e-01 5.139379e-03 3.399432e-02 3.730732e-02 -4.684214e-02
2.178750e+11 -5.547119e-02 -5.021872e-03 2.655251e-02 1.685231e-02 8.629170e-01 -4.726781e-01 6.313073e-03 1.083440e-02 2.656183e-02 1.687297e-02 -5.005954e-02 -2.761201e-03 5.739886e-03 1.039325e-02 8.631874e-01 -4.734916e-01 8.666409e-01 -4.669557e-01 6.839869e-03 1.187920e-02 3.734087e-02 -5.301327e-02 4.954144e-03 3.455484e-02 6.729329e-03 1.150901e-02 8.644380e-01 -4.699034e-01 5.170539e-03 3.413501e-02 3.746851e-02 -4.718738e-02
2.187500e+11 -5.593530e-02 -4.811926e-03 2.672083e-02 1.681732e-02 8.619132e-01 -4.744005e-01 6.383862e-03 1.087015e-02 2.673027e-02 1.683811e-02 -5.048837e-02 -2.564174e-03 5.806534e-03 1.042900e-02 8.621882e-01 -4.752190e-01 8.656693e-01 -4.686614e-01 6.913817e-03 1.191831e-02 3.750275e-02 -5.338175e-02 4.984075e-03 3.469780e-02 6.802668e-03 1.154662e-02 8.634509e-01 -4.716175e-01 5.201852e-03 3.427578e-02 3.762948e-02 -4.753406e-02
2.196250e+11 -5.640029e-02 -4.599163e-03 2.688932e-02 1.678122e-02 8.609055e-01 -4.761211e-01 6.455048e-03 1.090570e-02 2.689889e-02 1.680216e-02 -5.091806e-02 -2.364540e-03 5.873571e-03 1.046458e-02 8.611851e-01 -4.769447e-01 8.646940e-01 -4.703653e-01 6.988171e-03 1.195722e-02 3.766444e-02 -5.375170e-02 5.014140e-03 3.484086e-02 6.876414e-03 1.158403e-02 8.624599e-01 -4.733298e-01 5.233319e-03 3.441665e-02 3.779022e-02 -4.788219e-02
2.205000e+11 -5.686616e-02 -4.383569e-03 2.705798e-02 1.674403e-02 8.598940e-01 -4.778398e-01 6.526631e-03 1.094106e-02 2.706768e-02 1.676509e-02 -5.134860e-02 -2.162286e-03 5.940997e-03 1.049998e-02 8.601781e-01 -4.786686e-01 8.637151e-01 -4.720676e-01 7.062931e-03 1.199593e-02 3.782593e-02 -5.412311e-02 5.044340e-03 3.498402e-02 6.950566e-03 1.162122e-02 8.614650e-01 -4.750403e-01 5.264942e-03 3.455761e-02 3.795073e-02 -4.823176e-02
2.213750e+11 -5.733290e-02 -4.165133e-03 2.722681e-02 1.670572e-02 8.588787e-01 -4.795568e-01 6.598611e-03 1.097621e-02 2.723664e-02 1.672692e-02 -5.177998e-02 -1.957401e-03 6.008813e-03 1.053520e-02 8.591672e-01 -4.803907e-01 8.627325e-01 -4.737682e-01 7.138099e-03 1.203444e-02 3.798720e-02 -5.449598e-02 5.074676e-03 3.512728e-02 7.025126e-03 1.165821e-02 8.604662e-01 -4.767490e-01 5.296721e-03 3.469866e-02 3.811099e-02 -4.858278e-02
2.222500e+11 -5.780048e-02 -3.943842e-03 2.739580e-02 1.666631e-02 8.578595e-01 -4.812720e-01 6.670991e-03 1.101117e-02 2.740577e-02 1.668764e-02 -5.221219e-02 -1.749873e-03 6.077020e-03 1.057024e-02 8.581525e-01 -4.821111e-01 8.617462e-01 -4.754671e-01 7.213676e-03 1.207274e-02 3.814825e-02 -5.487032e-02 5.105151e-03 3.527064e-02 7.100093e-03 1.169498e-02 8.594635e-01 -4.784557e-01 5.328659e-03 3.483981e-02 3.827101e-02 -4.893524e-02
2.231250e+11 -5.826890e-02 -3.719685e-03 2.756494e-02 1.662578e-02 8.568365e-01 -4.829854e-01 6.743771e-03 1.104593e-02 2.757506e-02 1.664724e-02 -5.264521e-02 -1.539690e-03 6.145618e-03 1.060509e-02 8.571339e-01 -4.838297e-01 8.607563e-01 -4.771643e-01 7.289662e-03 1.211084e-02 3.830907e-02 -5.524613e-02 5.135765e-03 3.541410e-02 7.175466e-03 1.173153e-02 8.584568e-01 -4.801606e-01 5.360756e-03 3.498104e-02 3.843078e-02 -4.928915e-02
2.240000e+11 -5.873815e-02 -3.492648e-03 2.773424e-02 1.658413e-02 8.558096e-01 -4.846970e-01 6.816952e-03 1.108048e-02 2.774450e-02 1.660572e-02 -5.307903e-02 -1.326842e-03 6.214608e-03 1.063976e-02 8.561113e-01 -4.855465e-01 8.597626e-01 -4.788598e-01 7.366059e-03 1.214874e-02 3.846966e-02 -5.562341e-02 5.166519e-03 3.555767e-02 7.251247e-03 1.176786e-02 8.574462e-01 -4.818635e-01 5.393014e-03 3.512236e-02 3.859028e-02 -4.964451e-02
2.248750e+11 -5.920821e-02 -3.262720e-03 2.790367e-02 1.654137e-02 8.547789e-01 -4.864068e-01 6.890534e-03 1.111482e-02 2.791409e-02 1.656308e-02 -5.351363e-02 -1.111315e-03 6.283990e-03 1.067423e-02 8.550848e-01 -4.872614e-01 8.587652e-01 -4.805536e-01 7.442867e-03 1.218643e-02 3.862999e-02 -5.600216e-02 5.197417e-03 3.570134e-02 7.327435e-03 1.180398e-02 8.564317e-01 -4.835645e-01 5.425431e-03 3.526376e-02 3.874952e-02 -5.000131e-02
2.257500e+11 -5.967907e-02 -3.029889e-03 2.807325e-02 1.649748e-02 8.537442e-01 -4.881147e-01 6.964518e-03 1.114896e-02 2.808382e-02 1.651932e-02 -5.394899e-02 -8.931001e-04 6.353766e-03 1.070851e-02 8.540544e-01 -4.889746e-01 8.577640e-01 -4.822456e-01 7.520088e-03 1.222390e-02 3.879007e-02 -5.638239e-02 5.228458e-03 3.584511e-02 7.404029e-03 1.183986e-02 8.554132e-01 -4.852635e-01 5.458011e-03 3.540526e-02 3.890849e-02 -5.035956e-02
2.266250e+11 -6.015071e-02 -2.794141e-03 2.824296e-02 1.645247e-02 8.527056e-01 -4.898208e-01 7.038905e-03 1.118288e-02 2.825369e-02 1.647442e-02 -5.438512e-02 -6.721854e-04 6.423935e-03 1.074260e-02 8.530200e-01 -4.906858e-01 8.567592e-01 -4.839360e-01 7.597722e-03 1.226116e-02 3.894989e-02 -5.676408e-02 5.259646e-03 3.598899e-02 7.481030e-03 1.187552e-02 8.543909e-01 -4.869605e-01 5.490752e-03 3.554683e-02 3.906718e-02 -5.071925e-02
2.275000e+11 -6.062312e-02 -2.555465e-03 2.841280e-02 1.640632e-02 8.516631e-01 -4.915250e-01 7.113696e-03 1.121659e-02 2.842369e-02 1.642839e-02 -5.482197e-02 -4.485606e-04 6.494497e-03 1.077649e-02 8.519816e-01 -4.923952e-01 8.557505e-01 -4.856246e-01 7.675770e-03 1.229820e-02 3.910944e-02 -5.714725e-02 5.290981e-03 3.613298e-02 7.558437e-03 1.191096e-02 8.533646e-01 -4.886555e-01 5.523655e-03 3.568850e-02 3.922558e-02 -5.108040e-02
2.283750e+11 -6.109628e-02 -2.313849e-03 2.858277e-02 1.635904e-02 8.506167e-01 -4.932273e-01 7.188890e-03 1.125009e-02 2.859382e-02 1.638122e-02 -5.525955e-02 -2.222155e-04 6.565454e-03 1.081018e-02 8.509393e-01 -4.941027e-01 8.547381e-01 -4.873114e-01 7.754233e-03 1.233503e-02 3.926870e-02 -5.753189e-02 5.322466e-03 3.627707e-02 7.636249e-03 1.194616e-02 8.523345e-01 -4.903484e-01 5.556721e-03 3.583024e-02 3.938370e-02 -5.144299e-02
2.292500e+11 -6.157018e-02 -2.069280e-03 2.875285e-02 1.631062e-02 8.495663e-01 -4.949278e-01 7.264489e-03 1.128336e-02 2.876406e-02 1.633291e-02 -5.569784e-02 6.859688e-06 6.636804e-03 1.084367e-02 8.498930e-01 -4.958083e-01 8.537219e-01 -4.889965e-01 7.833111e-03 1.237163e-02 3.942768e-02 -5.791800e-02 5.354101e-03 3.642127e-02 7.714468e-03 1.198113e-02 8.513005e-01 -4.920392e-01 5.589949e-03 3.597207e-02 3.954153e-02 -5.180704e-02
2.301250e+11 -6.204480e-02 -1.821748e-03 2.892305e-02 1.626106e-02 8.485119e-01 -4.966263e-01 7.340494e-03 1.131641e-02 2.893443e-02 1.628346e-02 -5.613681e-02 2.386745e-04 6.708549e-03 1.087695e-02 8.488427e-01 -4.975119e-01 8.527019e-01 -4.906797e-01 7.912405e-03 1.240801e-02 3.958637e-02 -5.830558e-02 5.385889e-03 3.656557e-02 7.793091e-03 1.201586e-02 8.502626e-01 -4.937279e-01 5.623340e-03 3.611398e-02 3.969906e-02 -5.217254e-02
2.310000e+11 -6.252012e-02 -1.571241e-03 2.909335e-02 1.621036e-02 8.474536e-01 -4.983229e-01 7.416903e-03 1.134924e-02 2.910489e-02 1.623285e-02 -5.657645e-02 4.732378e-04 6.780688e-03 1.091002e-02 8.477884e-01 -4.992135e-01 8.516780e-01 -4.923612e-01 7.992115e-03 1.244417e-02 3.974475e-02 -5.869464e-02 5.417831e-03 3.670998e-02 7.872118e-03 1.205036e-02 8.492209e-01 -4.954144e-01 5.656893e-03 3.625596e-02 3.985628e-02 -5.253949e-02
2.318750e+11 -6.299613e-02 -1.317748e-03 2.926375e-02 1.615850e-02 8.463913e-01 -5.000176e-01 7.493718e-03 1.138185e-02 2.927547e-02 1.618110e-02 -5.701675e-02 7.105583e-04 6.853222e-03 1.094289e-02 8.467301e-01 -5.009131e-01 8.506504e-01 -4.940408e-01 8.072242e-03 1.248009e-02 3.990282e-02 -5.908518e-02 5.449928e-03 3.685450e-02 7.951549e-03 1.208462e-02 8.481753e-01 -4.970988e-01 5.690607e-03 3.639803e-02 4.001319e-02 -5.290789e-02
2.327500e+11 -6.347280e-02 -1.061258e-03 2.943425e-02 1.610550e-02 8.453250e-01 -5.017102e-01 7.570939e-03 1.141422e-02 2.944613e-02 1.612818e-02 -5.745768e-02 9.506440e-04 6.926150e-03 1.097555e-02 8.456678e-01 -5.026107e-01 8.496189e-01 -4.957186e-01 8.152786e-03 1.251578e-02 4.006057e-02 -5.947718e-02 5.482183e-03 3.699912e-02 8.031384e-03 1.211863e-02 8.471259e-01 -4.987810e-01 5.724483e-03 3.654018e-02 4.016979e-02 -5.327775e-02
2.336250e+11 -6.395013e-02 -8.017607e-04 2.960484e-02 1.605134e-02 8.442547e-01 -5.034009e-01 7.648566e-03 1.144636e-02 2.961689e-02 1.607411e-02 -5.789923e-02 1.193503e-03 6.999472e-03 1.100799e-02 8.446015e-01 -5.043062e-01 8.485836e-01 -4.973945e-01 8.233748e-03 1.255124e-02 4.021800e-02 -5.987066e-02 5.514596e-03 3.714385e-02 8.111622e-03 1.215241e-02 8.460727e-01 -5.004610e-01 5.758519e-03 3.668240e-02 4.032608e-02 -5.364906e-02
2.345000e+11 -6.442808e-02 -5.392467e-04 2.977551e-02 1.599602e-02 8.431803e-01 -5.050895e-01 7.726600e-03 1.147827e-02 2.978773e-02 1.601888e-02 -5.834138e-02 1.439141e-03 7.073189e-03 1.104021e-02 8.435313e-01 -5.059997e-01 8.475444e-01 -4.990684e-01 8.315128e-03 1.258647e-02 4.037510e-02 -6.026561e-02 5.547169e-03 3.728868e-02 8.192263e-03 1.218594e-02 8.450157e-01 -5.021388e-01 5.792715e-03 3.682470e-02 4.048204e-02 -5.402184e-02
2.353750e+11 -6.490665e-02 -2.737062e-04 2.994626e-02 1.593954e-02 8.421020e-01 -5.067761e-01 7.805040e-03 1.150994e-02 2.995864e-02 1.596248e-02 -5.878411e-02 1.687566e-03 7.147299e-03 1.107222e-02 8.424570e-01 -5.076910e-01 8.465014e-01 -5.007405e-01 8.396926e-03 1.262145e-02 4.053186e-02 -6.066204e-02 5.579904e-03 3.743361e-02 8.273306e-03 1.221923e-02 8.439549e-01 -5.038144e-01 5.827069e-03 3.696707e-02 4.063767e-02 -5.439607e-02
2.362500e+11 -6.538581e-02 -5.130342e-06 3.011708e-02 1.588190e-02 8.410197e-01 -5.084606e-01 7.883886e-03 1.154138e-02 3.012963e-02 1.590492e-02 -5.922740e-02 1.938783e-03 7.221804e-03 1.110401e-02 8.413788e-01 -5.093802e-01 8.454545e-01 -5.024106e-01 8.479142e-03 1.265619e-02 4.068828e-02 -6.105993e-02 5.612800e-03 3.757865e-02 8.354750e-03 1.225227e-02 8.428904e-01 -5.054877e-01 5.861582e-03 3.710952e-02 4.079296e-02 -5.477177e-02
2.371250e+11 -6.586554e-02 2.664894e-04 3.028796e-02 1.582308e-02 8.399333e-01 -5.101430e-01 7.963138e-03 1.157257e-02 3.030067e-02 1.584618e-02 -5.967124e-02 2.192798e-03 7.296702e-03 1.113557e-02 8.402966e-01 -5.110672e-01 8.444038e-01 -5.040788e-01 8.561776e-03 1.269069e-02 4.084434e-02 -6.145930e-02 5.645861e-03 3.772379e-02 8.436596e-03 1.228506e-02 8.418222e-01 -5.071588e-01 5.896251e-03 3.725204e-02 4.094792e-02 -5.514893e-02
2.380000e+11 -6.634583e-02 5.411610e-04 3.045890e-02 1.576310e-02 8.388429e-01 -5.118233e-01 8.042796e-03 1.160352e-02 3.047177e-02 1.578626e-02 -6.011561e-02 2.449616e-03 7.371994e-03 1.116691e-02 8.392104e-01 -5.127520e-01 8.433492e-01 -5.057449e-01 8.644828e-03 1.272494e-02 4.100005e-02 -6.186013e-02 5.679085e-03 3.786903e-02 8.518842e-03 1.231760e-02 8.407504e-01 -5.088275e-01 5.931076e-03 3.739464e-02 4.110254e-02 -5.552756e-02
2.388750e+11 -6.682665e-02 8.188920e-04 3.062989e-02 1.570193e-02 8.377486e-01 -5.135014e-01 8.122861e-03 1.163422e-02 3.064293e-02 1.572517e-02 -6.056049e-02 2.709241e-03 7.447679e-03 1.119803e-02 8.381203e-01 -5.144346e-01 8.422907e-01 -5.074090e-01 8.728298e-03 1.275894e-02 4.115539e-02 -6.226244e-02 5.712475e-03 3.801437e-02 8.601489e-03 1.234988e-02 8.396748e-01 -5.104940e-01 5.966055e-03 3.753732e-02 4.125681e-02 -5.590765e-02
2.397500e+11 -6.730799e-02 1.099689e-03 3.080092e-02 1.563959e-02 8.366502e-01 -5.151773e-01 8.203331e-03 1.166468e-02 3.081412e-02 1.566290e-02 -6.100586e-02 2.971678e-03 7.523757e-03 1.122892e-02 8.370262e-01 -5.161150e-01 8.412284e-01 -5.090711e-01 8.812186e-03 1.279269e-02 4.131037e-02 -6.266622e-02 5.746031e-03 3.815981e-02 8.684537e-03 1.238192e-02 8.385956e-01 -5.121582e-01 6.001188e-03 3.768006e-02 4.141072e-02 -5.628922e-02
2.406250e+11 -6.778982e-02 1.383559e-03 3.097199e-02 1.557607e-02 8.355477e-01 -5.168510e-01 8.284206e-03 1.169488e-02 3.098535e-02 1.559944e-02 -6.145170e-02 3.236929e-03 7.600227e-03 1.125957e-02 8.359283e-01 -5.177931e-01 8.401623e-01 -5.107310e-01 8.896493e-03 1.282619e-02 4.146497e-02 -6.307147e-02 5.779753e-03 3.830535e-02 8.767984e-03 1.241371e-02 8.375128e-01 -5.138202e-01 6.036471e-03 3.782288e-02 4.156427e-02 -5.667227e-02
2.415000e+11 -6.827212e-02 1.670506e-03 3.114309e-02 1.551136e-02 8.344413e-01 -5.185224e-01 8.365487e-03 1.172483e-02 3.115660e-02 1.553480e-02 -6.189800e-02 3.504998e-03 7.677090e-03 1.129000e-02 8.348264e-01 -5.194688e-01 8.390923e-01 -5.123889e-01 8.981216e-03 1.285943e-02 4.161918e-02 -6.347819e-02 5.813643e-03 3.845098e-02 8.851831e-03 1.244523e-02 8.364264e-01 -5.154798e-01 6.071906e-03 3.796578e-02 4.171746e-02 -5.705679e-02
2.423750e+11 -6.875488e-02 1.960537e-03 3.131422e-02 1.544547e-02 8.333309e-01 -5.201916e-01 8.447173e-03 1.175453e-02 3.132788e-02 1.546897e-02 -6.234473e-02 3.775887e-03 7.754344e-03 1.132019e-02 8.337206e-01 -5.211423e-01 8.380185e-01 -5.140446e-01 9.066357e-03 1.289241e-02 4.177301e-02 -6.388638e-02 5.847700e-03 3.859671e-02 8.936078e-03 1.247651e-02 8.353364e-01 -5.171371e-01 6.107488e-03 3.810875e-02 4.187029e-02 -5.744279e-02
2.432500e+11 -6.923806e-02 2.253656e-03 3.148536e-02 1.537839e-02 8.322165e-01 -5.218585e-01 8.529263e-03 1.178397e-02 3.149917e-02 1.540195e-02 -6.279189e-02 4.049598e-03 7.831991e-03 1.135015e-02 8.326109e-01 -5.228134e-01 8.369408e-01 -5.156982e-01 9.151916e-03 1.292513e-02 4.192645e-02 -6.429604e-02 5.881924e-03 3.874254e-02 9.020726e-03 1.250753e-02 8.342428e-01 -5.187921e-01 6.143219e-03 3.825180e-02 4.202273e-02 -5.783027e-02
2.441250e+11 -6.972166e-02 2.549867e-03 3.165651e-02 1.531011e-02 8.310982e-01 -5.235230e-01 8.611758e-03 1.181315e-02 3.167047e-02 1.533374e-02 -6.323946e-02 4.326132e-03 7.910029e-03 1.137987e-02 8.314974e-01 -5.244822e-01 8.358593e-01 -5.173496e-01 9.237891e-03 1.295759e-02 4.207949e-02 -6.470716e-02 5.916317e-03 3.888846e-02 9.105773e-03 1.253829e-02 8.331458e-01 -5.204449e-01 6.179095e-03 3.839492e-02 4.217479e-02 -5.821925e-02
2.450000e+11 -7.020566e-02 2.849173e-03 3.182767e-02 1.524064e-02 8.299759e-01 -5.251852e-01 8.694656e-03 1.184207e-02 3.184176e-02 1.526433e-02 -6.368741e-02 4.605491e-03 7.988458e-03 1.140935e-02 8.303801e-01 -5.261486e-01 8.347741e-01 -5.189988e-01 9.324282e-03 1.298978e-02 4.223213e-02 -6.511976e-02 5.950876e-03 3.903447e-02 9.191220e-03 1.256879e-02 8.320452e-01 -5.220953e-01 6.215117e-03 3.853812e-02 4.232647e-02 -5.860971e-02
2.458750e+11 -7.069002e-02 3.151577e-03 3.199882e-02 1.516997e-02 8.288496e-01 -5.268450e-01 8.777958e-03 1.187072e-02 3.201305e-02 1.519372e-02 -6.413574e-02 4.887676e-03 8.067278e-03 1.143859e-02 8.292589e-01 -5.278126e-01 8.336850e-01 -5.206457e-01 9.411089e-03 1.302171e-02 4.238436e-02 -6.553383e-02 5.985603e-03 3.918057e-02 9.277068e-03 1.259903e-02 8.309411e-01 -5.237435e-01 6.251282e-03 3.868139e-02 4.247775e-02 -5.900167e-02
2.467500e+11 -7.117474e-02 3.457082e-03 3.216996e-02 1.509810e-02 8.277194e-01 -5.285024e-01 8.861662e-03 1.189911e-02 3.218433e-02 1.512192e-02 -6.458442e-02 5.172686e-03 8.146489e-03 1.146759e-02 8.281340e-01 -5.294741e-01 8.325921e-01 -5.222904e-01 9.498312e-03 1.305337e-02 4.253618e-02 -6.594937e-02 6.020497e-03 3.932676e-02 9.363317e-03 1.262901e-02 8.298335e-01 -5.253894e-01 6.287589e-03 3.882475e-02 4.262864e-02 -5.939512e-02
2.476250e+11 -7.165979e-02 3.765689e-03 3.234108e-02 1.502503e-02 8.265854e-01 -5.301574e-01 8.945769e-03 1.192724e-02 3.235559e-02 1.504892e-02 -6.503345e-02 5.460523e-03 8.226091e-03 1.149636e-02 8.270053e-01 -5.311333e-01 8.314955e-01 -5.239328e-01 9.585950e-03 1.308475e-02 4.268758e-02 -6.636637e-02 6.055557e-03 3.947304e-02 9.449967e-03 1.265873e-02 8.287225e-01 -5.270330e-01 6.324037e-03 3.896819e-02 4.277911e-02 -5.979008e-02
2.485000e+11 -7.214516e-02 4.077400e-03 3.251217e-02 1.495076e-02 8.254474e-01 -5.318099e-01 9.030279e-03 1.195509e-02 3.252681e-02 1.497471e-02 -6.548280e-02 5.751186e-03 8.306083e-03 1.152487e-02 8.258728e-01 -5.327900e-01 8.303952e-01 -5.255729e-01 9.674003e-03 1.311587e-02 4.283856e-02 -6.678485e-02 6.090783e-03 3.961940e-02 9.537019e-03 1.268819e-02 8.276080e-01 -5.286744e-01 6.360625e-03 3.911171e-02 4.292918e-02 -6.018653e-02
2.493750e+11 -7.263082e-02 4.392215e-03 3.268324e-02 1.487528e-02 8.243055e-01 -5.334600e-01 9.115190e-03 1.198268e-02 3.269800e-02 1.489930e-02 -6.593247e-02 6.044675e-03 8.386466e-03 1.155314e-02 8.247367e-01 -5.344443e-01 8.292911e-01 -5.272107e-01 9.762470e-03 1.314671e-02 4.298912e-02 -6.720481e-02 6.126174e-03 3.976585e-02 9.624474e-03 1.271739e-02 8.264901e-01 -5.303135e-01 6.397352e-03 3.925531e-02 4.307882e-02 -6.058450e-02
2.502500e+11 -7.311676e-02 4.710134e-03 3.285426e-02 1.479859e-02 8.231598e-01 -5.351076e-01 9.200502e-03 1.201000e-02 3.286915e-02 1.482269e-02 -6.638243e-02 6.340990e-03 8.467240e-03 1.158117e-02 8.235968e-01 -5.360961e-01 8.281834e-01 -5.288461e-01 9.851351e-03 1.317727e-02 4.313924e-02 -6.762623e-02 6.161729e-03 3.991239e-02 9.712333e-03 1.274632e-02 8.253688e-01 -5.319504e-01 6.434218e-03 3.939899e-02 4.322803e-02 -6.098398e-02
2.511250e+11 -7.360296e-02 5.031159e-03 3.302524e-02 1.472069e-02 8.220103e-01 -5.367526e-01 9.286215e-03 1.203704e-02 3.304025e-02 1.474487e-02 -6.683268e-02 6.640130e-03 8.548405e-03 1.160895e-02 8.224533e-01 -5.377455e-01 8.270719e-01 -5.304792e-01 9.940646e-03 1.320756e-02 4.328892e-02 -6.804913e-02 6.197447e-03 4.005901e-02 9.800596e-03 1.277499e-02 8.242441e-01 -5.335851e-01 6.471222e-03 3.954277e-02 4.337681e-02 -6.138498e-02
2.520000e+11 -7.408939e-02 5.355288e-03 3.319616e-02 1.464158e-02 8.208570e-01 -5.383952e-01 9.372329e-03 1.206380e-02 3.321130e-02 1.466584e-02 -6.728320e-02 6.942095e-03 8.629960e-03 1.163648e-02 8.213061e-01 -5.393924e-01 8.259568e-01 -5.321099e-01 1.003035e-02 1.323756e-02 4.343816e-02 -6.847350e-02 6.233327e-03 4.020572e-02 9.889264e-03 1.280339e-02 8.231159e-01 -5.352176e-01 6.508362e-03 3.968663e-02 4.352514e-02 -6.178749e-02
2.528750e+11 -7.457606e-02 5.682521e-03 3.336702e-02 1.456125e-02 8.196999e-01 -5.400352e-01 9.458844e-03 1.209030e-02 3.338228e-02 1.458560e-02 -6.773398e-02 7.246885e-03 8.711907e-03 1.166376e-02 8.201553e-01 -5.410369e-01 8.248381e-01 -5.337382e-01 1.012048e-02 1.326729e-02 4.358696e-02 -6.889936e-02 6.269367e-03 4.035250e-02 9.978339e-03 1.283153e-02 8.219843e-01 -5.368480e-01 6.545639e-03 3.983058e-02 4.367303e-02 -6.219153e-02
2.537500e+11 -7.506293e-02 6.012856e-03 3.353782e-02 1.447971e-02 8.185390e-01 -5.416726e-01 9.545759e-03 1.211651e-02 3.355320e-02 1.450416e-02 -6.818501e-02 7.554498e-03 8.794245e-03 1.169080e-02 8.190009e-01 -5.426789e-01 8.237158e-01 -5.353642e-01 1.021101e-02 1.329673e-02 4.373530e-02 -6.932669e-02 6.305567e-03 4.049937e-02 1.006782e-02 1.285940e-02 8.208493e-01 -5.384761e-01 6.583053e-03 3.997463e-02 4.382045e-02 -6.259709e-02
2.546250e+11 -7.554999e-02 6.346293e-03 3.370854e-02 1.439696e-02 8.173744e-01 -5.433075e-01 9.633074e-03 1.214245e-02 3.372404e-02 1.442150e-02 -6.863628e-02 7.864935e-03 8.876975e-03 1.171758e-02 8.178429e-01 -5.443184e-01 8.225898e-01 -5.369877e-01 1.030196e-02 1.332590e-02 4.388319e-02 -6.975550e-02 6.341925e-03 4.064633e-02 1.015771e-02 1.288700e-02 8.197109e-01 -5.401021e-01 6.620603e-03 4.011877e-02 4.396740e-02 -6.300418e-02
2.555000e+11 -7.603722e-02 6.682831e-03 3.387918e-02 1.431299e-02 8.162061e-01 -5.449398e-01 9.720789e-03 1.216810e-02 3.389480e-02 1.433763e-02 -6.908778e-02 8.178195e-03 8.960097e-03 1.174411e-02 8.166813e-01 -5.459555e-01 8.214603e-01 -5.386088e-01 1.039332e-02 1.335477e-02 4.403062e-02 -7.018579e-02 6.378439e-03 4.079336e-02 1.024802e-02 1.291433e-02 8.185691e-01 -5.417260e-01 6.658290e-03 4.026300e-02 4.411388e-02 -6.341280e-02
2.563750e+11 -7.652462e-02 7.022467e-03 3.404973e-02 1.422780e-02 8.150341e-01 -5.465696e-01 9.808904e-03 1.219348e-02 3.406548e-02 1.425254e-02 -6.953949e-02 8.494278e-03 9.043613e-03 1.177038e-02 8.155162e-01 -5.475901e-01 8.203273e-01 -5.402275e-01 1.048509e-02 1.338336e-02 4.417758e-02 -7.061757e-02 6.415109e-03 4.094048e-02 1.033873e-02 1.294138e-02 8.174239e-01 -5.433477e-01 6.696114e-03 4.040733e-02 4.425987e-02 -6.382296e-02
2.572500e+11 -7.701216e-02 7.365200e-03 3.422019e-02 1.414138e-02 8.138584e-01 -5.481968e-01 9.897420e-03 1.221857e-02 3.423606e-02 1.416624e-02 -6.999140e-02 8.813186e-03 9.127522e-03 1.179641e-02 8.143476e-01 -5.492223e-01 8.191907e-01 -5.418438e-01 1.057727e-02 1.341167e-02 4.432407e-02 -7.105084e-02 6.451932e-03 4.108767e-02 1.042986e-02 1.296817e-02 8.162752e-01 -5.449673e-01 6.734075e-03 4.055177e-02 4.440536e-02 -6.423465e-02
2.581250e+11 -7.749983e-02 7.711029e-03 3.439054e-02 1.405375e-02 8.126791e-01 -5.498213e-01 9.986335e-03 1.224338e-02 3.440654e-02 1.407873e-02 -7.044351e-02 9.134917e-03 9.211826e-03 1.182217e-02 8.131755e-01 -5.508521e-01 8.180506e-01 -5.434576e-01 1.066987e-02 1.343968e-02 4.447008e-02 -7.148559e-02 6.488907e-03 4.123495e-02 1.052140e-02 1.299468e-02 8.151231e-01 -5.465849e-01 6.772174e-03 4.069631e-02 4.455034e-02 -6.464789e-02
2.590000e+11 -7.798762e-02 8.059952e-03 3.456079e-02 1.396490e-02 8.114962e-01 -5.514434e-01 1.007565e-02 1.226791e-02 3.457691e-02 1.399000e-02 -7.089581e-02 9.459474e-03 9.296525e-03 1.184768e-02 8.119998e-01 -5.524794e-01 8.169071e-01 -5.450691e-01 1.076288e-02 1.346741e-02 4.461561e-02 -7.192184e-02 6.526032e-03 4.138232e-02 1.061336e-02 1.302091e-02 8.139676e-01 -5.482003e-01 6.810413e-03 4.084095e-02 4.469481e-02 -6.506266e-02
2.598750e+11 -7.847551e-02 8.411968e-03 3.473092e-02 1.387482e-02 8.103097e-01 -5.530628e-01 1.016537e-02 1.229215e-02 3.474718e-02 1.390005e-02 -7.134829e-02 9.786858e-03 9.381620e-03 1.187294e-02 8.108207e-01 -5.541043e-01 8.157601e-01 -5.466781e-01 1.085630e-02 1.349485e-02 4.476066e-02 -7.235958e-02 6.563306e-03 4.152976e-02 1.070574e-02 1.304686e-02 8.128085e-01 -5.498136e-01 6.848791e-03 4.098569e-02 4.483876e-02 -6.547898e-02
2.607500e+11 -7.896350e-02 8.767075e-03 3.490094e-02 1.378351e-02 8.091196e-01 -5.546796e-01 1.025549e-02 1.231611e-02 3.491733e-02 1.380888e-02 -7.180093e-02 1.011707e-02 9.467113e-03 1.189793e-02 8.096381e-01 -5.557268e-01 8.146097e-01 -5.482846e-01 1.095013e-02 1.352200e-02 4.490521e-02 -7.279882e-02 6.600728e-03 4.167729e-02 1.079853e-02 1.307253e-02 8.116460e-01 -5.514249e-01 6.887310e-03 4.113055e-02 4.498216e-02 -6.589685e-02
2.616250e+11 -7.945156e-02 9.125272e-03 3.507082e-02 1.369098e-02 8.079260e-01 -5.562939e-01 1.034601e-02 1.233977e-02 3.508736e-02 1.371649e-02 -7.225373e-02 1.045011e-02 9.553004e-03 1.192267e-02 8.084521e-01 -5.573469e-01 8.134559e-01 -5.498888e-01 1.104438e-02 1.354885e-02 4.504926e-02 -7.323956e-02 6.638295e-03 4.182490e-02 1.089175e-02 1.309792e-02 8.104799e-01 -5.530341e-01 6.925972e-03 4.127551e-02 4.512502e-02 -6.631627e-02
2.625000e+11 -7.993970e-02 9.486559e-03 3.524058e-02 1.359723e-02 8.067288e-01 -5.579056e-01 1.043693e-02 1.236316e-02 3.525726e-02 1.362288e-02 -7.270669e-02 1.078599e-02 9.639294e-03 1.194714e-02 8.072626e-01 -5.589647e-01 8.122986e-01 -5.514905e-01 1.113904e-02 1.357541e-02 4.519280e-02 -7.368181e-02 6.676006e-03 4.197260e-02 1.098539e-02 1.312303e-02 8.093103e-01 -5.546412e-01 6.964778e-03 4.142059e-02 4.526733e-02 -6.673723e-02
2.633750e+11 -8.042789e-02 9.850934e-03 3.541019e-02 1.350224e-02 8.055282e-01 -5.595147e-01 1.052825e-02 1.238625e-02 3.542702e-02 1.352804e-02 -7.315979e-02 1.112470e-02 9.725986e-03 1.197135e-02 8.060696e-01 -5.605801e-01 8.111380e-01 -5.530899e-01 1.123412e-02 1.360168e-02 4.533584e-02 -7.412556e-02 6.713859e-03 4.212038e-02 1.107946e-02 1.314785e-02 8.081372e-01 -5.562463e-01 7.003730e-03 4.156578e-02 4.540906e-02 -6.715975e-02
2.642500e+11 -8.091613e-02 1.021840e-02 3.557966e-02 1.340603e-02 8.043240e-01 -5.611213e-01 1.061998e-02 1.240905e-02 3.559665e-02 1.343198e-02 -7.361303e-02 1.146626e-02 9.813080e-03 1.199530e-02 8.048732e-01 -5.621931e-01 8.099741e-01 -5.546868e-01 1.132961e-02 1.362765e-02 4.547835e-02 -7.457082e-02 6.751855e-03 4.226825e-02 1.117395e-02 1.317238e-02 8.069605e-01 -5.578493e-01 7.042830e-03 4.171108e-02 4.555022e-02 -6.758381e-02
2.651250e+11 -8.140441e-02 1.058895e-02 3.574898e-02 1.330859e-02 8.031163e-01 -5.627254e-01 1.071212e-02 1.243156e-02 3.576614e-02 1.333470e-02 -7.406639e-02 1.181065e-02 9.900577e-03 1.201898e-02 8.036733e-01 -5.638039e-01 8.088067e-01 -5.562814e-01 1.142552e-02 1.365333e-02 4.562034e-02 -7.501760e-02 6.789990e-03 4.241621e-02 1.126887e-02 1.319662e-02 8.057801e-01 -5.594502e-01 7.082079e-03 4.185650e-02 4.569079e-02 -6.800942e-02
2.660000e+11 -8.189271e-02 1.096259e-02 3.591814e-02 1.320991e-02 8.019051e-01 -5.643269e-01 1.080466e-02 1.245377e-02 3.593547e-02 1.323618e-02 -7.451988e-02 1.215790e-02 9.988480e-03 1.204240e-02 8.024700e-01 -5.654122e-01 8.076361e-01 -5.578736e-01 1.152185e-02 1.367871e-02 4.576179e-02 -7.546589e-02 6.828264e-03 4.256426e-02 1.136422e-02 1.322056e-02 8.045962e-01 -5.610491e-01 7.121480e-03 4.200203e-02 4.583076e-02 -6.843659e-02
2.668750e+11 -8.238103e-02 1.133933e-02 3.608714e-02 1.311000e-02 8.006905e-01 -5.659259e-01 1.089760e-02 1.247570e-02 3.610465e-02 1.313644e-02 -7.497347e-02 1.250800e-02 1.007679e-02 1.206555e-02 8.012632e-01 -5.670183e-01 8.064621e-01 -5.594635e-01 1.161859e-02 1.370379e-02 4.590270e-02 -7.591570e-02 6.866677e-03 4.271240e-02 1.146001e-02 1.324420e-02 8.034086e-01 -5.626458e-01 7.161034e-03 4.214768e-02 4.597011e-02 -6.886530e-02
2.677500e+11 -8.286936e-02 1.171915e-02 3.625597e-02 1.300886e-02 7.994724e-01 -5.675224e-01 1.099096e-02 1.249733e-02 3.627368e-02 1.303546e-02 -7.542717e-02 1.286097e-02 1.016551e-02 1.208843e-02 8.000529e-01 -5.686221e-01 8.052848e-01 -5.610510e-01 1.171576e-02 1.372857e-02 4.604307e-02 -7.636704e-02 6.905226e-03 4.286063e-02 1.155622e-02 1.326755e-02 8.022173e-01 -5.642405e-01 7.200745e-03 4.229345e-02 4.610885e-02 -6.929557e-02
2.686250e+11 -8.335768e-02 1.210207e-02 3.642463e-02 1.290648e-02 7.982509e-01 -5.691164e-01 1.108472e-02 1.251866e-02 3.644253e-02 1.293325e-02 -7.588096e-02 1.321680e-02 1.025464e-02 1.211104e-02 7.988391e-01 -5.702236e-01 8.041041e-01 -5.626362e-01 1.181334e-02 1.375305e-02 4.618288e-02 -7.681990e-02 6.943912e-03 4.300896e-02 1.165287e-02 1.329059e-02 8.010223e-01 -5.658330e-01 7.240615e-03 4.243934e-02 4.624695e-02 -6.972738e-02
2.695000e+11 -8.384600e-02 1.248809e-02 3.659311e-02 1.280287e-02 7.970259e-01 -5.707079e-01 1.117890e-02 1.253970e-02 3.661122e-02 1.282981e-02 -7.633484e-02 1.357550e-02 1.034417e-02 1.213337e-02 7.976219e-01 -5.718229e-01 8.029202e-01 -5.642190e-01 1.191135e-02 1.377723e-02 4.632212e-02 -7.727430e-02 6.982733e-03 4.315739e-02 1.174996e-02 1.331332e-02 7.998235e-01 -5.674234e-01 7.280645e-03 4.258534e-02 4.638441e-02 -7.016073e-02
2.703750e+11 -8.433430e-02 1.287721e-02 3.676141e-02 1.269801e-02 7.957974e-01 -5.722969e-01 1.127348e-02 1.256043e-02 3.677974e-02 1.272513e-02 -7.678880e-02 1.393709e-02 1.043413e-02 1.215543e-02 7.964011e-01 -5.734198e-01 8.017329e-01 -5.657996e-01 1.200978e-02 1.380111e-02 4.646079e-02 -7.773022e-02 7.021689e-03 4.330591e-02 1.184748e-02 1.333574e-02 7.986210e-01 -5.690116e-01 7.320838e-03 4.273146e-02 4.652121e-02 -7.059563e-02
2.712500e+11 -8.482256e-02 1.326943e-02 3.692951e-02 1.259192e-02 7.945655e-01 -5.738835e-01 1.136848e-02 1.258087e-02 3.694807e-02 1.261920e-02 -7.724282e-02 1.430157e-02 1.052450e-02 1.217721e-02 7.951768e-01 -5.750146e-01 8.005423e-01 -5.673779e-01 1.210864e-02 1.382468e-02 4.659888e-02 -7.818769e-02 7.060781e-03 4.345454e-02 1.194545e-02 1.335785e-02 7.974147e-01 -5.705977e-01 7.361197e-03 4.287770e-02 4.665735e-02 -7.103208e-02
2.721250e+11 -8.531079e-02 1.366477e-02 3.709742e-02 1.248458e-02 7.933301e-01 -5.754677e-01 1.146390e-02 1.260100e-02 3.711622e-02 1.251203e-02 -7.769690e-02 1.466895e-02 1.061528e-02 1.219871e-02 7.939489e-01 -5.766070e-01 7.993484e-01 -5.689539e-01 1.220792e-02 1.384795e-02 4.673637e-02 -7.864669e-02 7.100007e-03 4.360328e-02 1.204385e-02 1.337965e-02 7.962046e-01 -5.721815e-01 7.401724e-03 4.302406e-02 4.679281e-02 -7.147006e-02
2.730000e+11 -8.579898e-02 1.406322e-02 3.726513e-02 1.237600e-02 7.920913e-01 -5.770494e-01 1.155973e-02 1.262084e-02 3.728418e-02 1.240362e-02 -7.815103e-02 1.503924e-02 1.070648e-02 1.221993e-02 7.927175e-01 -5.781973e-01 7.981512e-01 -5.705277e-01 1.230763e-02 1.387090e-02 4.687327e-02 -7.910724e-02 7.139368e-03 4.375211e-02 1.214269e-02 1.340112e-02 7.949906e-01 -5.737630e-01 7.442421e-03 4.317053e-02 4.692759e-02 -7.190958e-02
2.738750e+11 -8.628711e-02 1.446479e-02 3.743263e-02 1.226617e-02 7.908490e-01 -5.786287e-01 1.165598e-02 1.264036e-02 3.745194e-02 1.229395e-02 -7.860519e-02 1.541244e-02 1.079811e-02 1.224086e-02 7.914825e-01 -5.797852e-01 7.969506e-01 -5.720992e-01 1.240777e-02 1.389355e-02 4.700955e-02 -7.956933e-02 7.178865e-03 4.390106e-02 1.224197e-02 1.342227e-02 7.937728e-01 -5.753423e-01 7.483291e-03 4.331712e-02 4.706168e-02 -7.235063e-02
2.747500e+11 -8.677517e-02 1.486948e-02 3.759992e-02 1.215510e-02 7.896032e-01 -5.802056e-01 1.175266e-02 1.265958e-02 3.761950e-02 1.218304e-02 -7.905938e-02 1.578858e-02 1.089016e-02 1.226151e-02 7.902439e-01 -5.813710e-01 7.957467e-01 -5.736684e-01 1.250835e-02 1.391589e-02 4.714521e-02 -8.003296e-02 7.218497e-03 4.405012e-02 1.234170e-02 1.344309e-02 7.925512e-01 -5.769193e-01 7.524335e-03 4.346382e-02 4.719506e-02 -7.279321e-02
2.756250e+11 -8.726316e-02 1.527732e-02 3.776700e-02 1.204277e-02 7.883539e-01 -5.817801e-01 1.184975e-02 1.267849e-02 3.778685e-02 1.207087e-02 -7.951357e-02 1.616765e-02 1.098263e-02 1.228186e-02 7.890016e-01 -5.829544e-01 7.945394e-01 -5.752355e-01 1.260935e-02 1.393792e-02 4.728024e-02 -8.049815e-02 7.258265e-03 4.419929e-02 1.244186e-02 1.346358e-02 7.913256e-01 -5.784940e-01 7.565557e-03 4.361063e-02 4.732772e-02 -7.323731e-02
2.765000e+11 -8.775106e-02 1.568829e-02 3.793385e-02 1.192919e-02 7.871010e-01 -5.833522e-01 1.194727e-02 1.269709e-02 3.795399e-02 1.195744e-02 -7.996777e-02 1.654967e-02 1.107552e-02 1.230192e-02 7.877557e-01 -5.845357e-01 7.933287e-01 -5.768003e-01 1.271080e-02 1.395963e-02 4.741463e-02 -8.096489e-02 7.298171e-03 4.434857e-02 1.254247e-02 1.348373e-02 7.900961e-01 -5.800662e-01 7.606956e-03 4.375756e-02 4.745966e-02 -7.368294e-02
2.773750e+11 -8.823887e-02 1.610242e-02 3.810047e-02 1.181435e-02 7.858446e-01 -5.849220e-01 1.204521e-02 1.271537e-02 3.812091e-02 1.184274e-02 -8.042195e-02 1.693466e-02 1.116884e-02 1.232169e-02 7.865060e-01 -5.861146e-01 7.921146e-01 -5.783630e-01 1.281268e-02 1.398102e-02 4.754837e-02 -8.143319e-02 7.338215e-03 4.449797e-02 1.264353e-02 1.350355e-02 7.888627e-01 -5.816360e-01 7.648537e-03 4.390459e-02 4.759088e-02 -7.413009e-02
2.782500e+11 -8.872657e-02 1.651971e-02 3.826686e-02 1.169826e-02 7.845847e-01 -5.864893e-01 1.214359e-02 1.273334e-02 3.828761e-02 1.172679e-02 -8.087610e-02 1.732261e-02 1.126260e-02 1.234116e-02 7.852526e-01 -5.876913e-01 7.908971e-01 -5.799234e-01 1.291500e-02 1.400210e-02 4.768144e-02 -8.190303e-02 7.378399e-03 4.464750e-02 1.274503e-02 1.352302e-02 7.876254e-01 -5.832033e-01 7.690299e-03 4.405173e-02 4.772135e-02 -7.457875e-02
2.791250e+11 -8.921415e-02 1.694016e-02 3.843301e-02 1.158090e-02 7.833212e-01 -5.880543e-01 1.224239e-02 1.275098e-02 3.845408e-02 1.160956e-02 -8.133020e-02 1.771355e-02 1.135678e-02 1.236032e-02 7.839955e-01 -5.892657e-01 7.896762e-01 -5.814817e-01 1.301776e-02 1.402285e-02 4.781384e-02 -8.237444e-02 7.418724e-03 4.479714e-02 1.284697e-02 1.354215e-02 7.863842e-01 -5.847681e-01 7.732245e-03 4.419898e-02 4.785107e-02 -7.502891e-02
2.800000e+11 -8.970160e-02 1.736380e-02 3.859891e-02 1.146228e-02 7.820541e-01 -5.896170e-01 1.234162e-02 1.276831e-02 3.862030e-02 1.149106e-02 -8.178425e-02 1.810748e-02 1.145139e-02 1.237918e-02 7.827346e-01 -5.908378e-01 7.884518e-01 -5.830378e-01 1.312097e-02 1.404328e-02 4.794555e-02 -8.284740e-02 7.459192e-03 4.494690e-02 1.294935e-02 1.356093e-02 7.851390e-01 -5.863303e-01 7.774375e-03 4.434633e-02 4.798003e-02 -7.548059e-02
2.808750e+11 -9.018890e-02 1.779063e-02 3.876457e-02 1.134239e-02 7.807833e-01 -5.911772e-01 1.244129e-02 1.278531e-02 3.878629e-02 1.137128e-02 -8.223821e-02 1.850442e-02 1.154644e-02 1.239773e-02 7.814699e-01 -5.924076e-01 7.872239e-01 -5.845916e-01 1.322462e-02 1.406338e-02 4.807656e-02 -8.332192e-02 7.499804e-03 4.509679e-02 1.305218e-02 1.357935e-02 7.838899e-01 -5.878899e-01 7.816692e-03 4.449378e-02 4.810824e-02 -7.593376e-02
2.817500e+11 -9.067605e-02 1.822066e-02 3.892996e-02 1.122123e-02 7.795089e-01 -5.927351e-01 1.254140e-02 1.280199e-02 3.895202e-02 1.125022e-02 -8.269207e-02 1.890437e-02 1.164192e-02 1.241597e-02 7.802014e-01 -5.939750e-01 7.859925e-01 -5.861433e-01 1.332872e-02 1.408315e-02 4.820687e-02 -8.379800e-02 7.540563e-03 4.524681e-02 1.315545e-02 1.359742e-02 7.826369e-01 -5.894469e-01 7.859194e-03 4.464132e-02 4.823567e-02 -7.638842e-02
2.826250e+11 -9.116302e-02 1.865391e-02 3.909510e-02 1.109879e-02 7.782308e-01 -5.942906e-01 1.264194e-02 1.281833e-02 3.911750e-02 1.112788e-02 -8.314582e-02 1.930735e-02 1.173783e-02 1.243390e-02 7.789289e-01 -5.955401e-01 7.847576e-01 -5.876928e-01 1.343327e-02 1.410259e-02 4.833645e-02 -8.427563e-02 7.581471e-03 4.539696e-02 1.325916e-02 1.361513e-02 7.813800e-01 -5.910011e-01 7.901884e-03 4.478897e-02 4.836232e-02 -7.684458e-02
2.835000e+11 -9.164980e-02 1.909038e-02 3.925996e-02 1.097508e-02 7.769490e-01 -5.958437e-01 1.274292e-02 1.283434e-02 3.928271e-02 1.100425e-02 -8.359944e-02 1.971337e-02 1.183419e-02 1.245150e-02 7.776526e-01 -5.971027e-01 7.835190e-01 -5.892401e-01 1.353828e-02 1.412169e-02 4.846530e-02 -8.475483e-02 7.622530e-03 4.554723e-02 1.336331e-02 1.363247e-02 7.801191e-01 -5.925526e-01 7.944761e-03 4.493670e-02 4.848820e-02 -7.730222e-02
2.843750e+11 -9.213638e-02 1.953009e-02 3.942455e-02 1.085009e-02 7.756635e-01 -5.973944e-01 1.284434e-02 1.285002e-02 3.944765e-02 1.087932e-02 -8.405290e-02 2.012243e-02 1.193098e-02 1.246878e-02 7.763724e-01 -5.986629e-01 7.822769e-01 -5.907852e-01 1.364373e-02 1.414045e-02 4.859340e-02 -8.523558e-02 7.663743e-03 4.569764e-02 1.346791e-02 1.364945e-02 7.788544e-01 -5.941012e-01 7.987825e-03 4.508453e-02 4.861328e-02 -7.776134e-02
2.852500e+11 -9.262274e-02 1.997304e-02 3.958885e-02 1.072381e-02 7.743742e-01 -5.989426e-01 1.294620e-02 1.286535e-02 3.961231e-02 1.075310e-02 -8.450618e-02 2.053455e-02 1.202820e-02 1.248574e-02 7.750882e-01 -6.002206e-01 7.810312e-01 -5.923280e-01 1.374965e-02 1.415887e-02 4.872075e-02 -8.571788e-02 7.705112e-03 4.584818e-02 1.357294e-02 1.366606e-02 7.775858e-01 -5.956470e-01 8.031076e-03 4.523244e-02 4.873757e-02 -7.822193e-02
2.861250e+11 -9.310886e-02 2.041926e-02 3.975287e-02 1.059624e-02 7.730810e-01 -6.004885e-01 1.304851e-02 1.288034e-02 3.977669e-02 1.062558e-02 -8.495926e-02 2.094974e-02 1.212587e-02 1.250236e-02 7.738001e-01 -6.017758e-01 7.797817e-01 -5.938687e-01 1.385602e-02 1.417695e-02 4.884733e-02 -8.620174e-02 7.746640e-03 4.599885e-02 1.367841e-02 1.368230e-02 7.763133e-01 -5.971899e-01 8.074514e-03 4.538044e-02 4.886107e-02 -7.868400e-02
2.870000e+11 -9.359471e-02 2.086875e-02 3.991659e-02 1.046738e-02 7.717841e-01 -6.020318e-01 1.315126e-02 1.289498e-02 3.994076e-02 1.049675e-02 -8.541211e-02 2.136800e-02 1.222398e-02 1.251865e-02 7.725080e-01 -6.033285e-01 7.785286e-01 -5.954070e-01 1.396285e-02 1.419467e-02 4.897313e-02 -8.668715e-02 7.788329e-03 4.614965e-02 1.378433e-02 1.369816e-02 7.750371e-01 -5.987299e-01 8.118137e-03 4.552852e-02 4.898376e-02 -7.914753e-02
2.878750e+11 -9.408029e-02 2.132152e-02 4.008000e-02 1.033722e-02 7.704832e-01 -6.035727e-01 1.325446e-02 1.290927e-02 4.010454e-02 1.036662e-02 -8.586473e-02 2.178935e-02 1.232252e-02 1.253460e-02 7.712119e-01 -6.048785e-01 7.772718e-01 -5.969431e-01 1.407013e-02 1.421204e-02 4.909814e-02 -8.717411e-02 7.830183e-03 4.630059e-02 1.389068e-02 1.371364e-02 7.737570e-01 -6.002669e-01 8.161944e-03 4.567668e-02 4.910564e-02 -7.961253e-02
2.887500e+11 -9.456557e-02 2.177760e-02 4.024311e-02 1.020577e-02 7.691785e-01 -6.051110e-01 1.335811e-02 1.292320e-02 4.026800e-02 1.023517e-02 -8.631707e-02 2.221379e-02 1.242151e-02 1.255022e-02 7.699118e-01 -6.064260e-01 7.760112e-01 -5.984768e-01 1.417789e-02 1.422905e-02 4.922235e-02 -8.766262e-02 7.872205e-03 4.645166e-02 1.399746e-02 1.372874e-02 7.724732e-01 -6.018009e-01 8.205935e-03 4.582492e-02 4.922671e-02 -8.007899e-02
2.896250e+11 -9.505052e-02 2.223698e-02 4.040589e-02 1.007301e-02 7.678699e-01 -6.066469e-01 1.346220e-02 1.293678e-02 4.043114e-02 1.010241e-02 -8.676911e-02 2.264133e-02 1.252093e-02 1.256548e-02 7.686076e-01 -6.079707e-01 7.747468e-01 -6.000082e-01 1.428610e-02 1.424570e-02 4.934573e-02 -8.815267e-02 7.914397e-03 4.660286e-02 1.410468e-02 1.374346e-02 7.711856e-01 -6.033318e-01 8.250107e-03 4.597324e-02 4.934697e-02 -8.054691e-02
2.905000e+11 -9.553513e-02 2.269968e-02 4.056835e-02 9.938941e-03 7.665573e-01 -6.081801e-01 1.356675e-02 1.294999e-02 4.059395e-02 9.968332e-03 -8.722083e-02 2.307197e-02 1.262080e-02 1.258040e-02 7.672995e-01 -6.095127e-01 7.734786e-01 -6.015373e-01 1.439478e-02 1.426199e-02 4.946830e-02 -8.864426e-02 7.956763e-03 4.675420e-02 1.421234e-02 1.375779e-02 7.698944e-01 -6.048596e-01 8.294458e-03 4.612162e-02 4.946641e-02 -8.101628e-02
2.913750e+11 -9.601937e-02 2.316571e-02 4.073048e-02 9.803563e-03 7.652407e-01 -6.097107e-01 1.367174e-02 1.296284e-02 4.075642e-02 9.832931e-03 -8.767221e-02 2.350572e-02 1.272111e-02 1.259497e-02 7.659872e-01 -6.110519e-01 7.722066e-01 -6.030639e-01 1.450392e-02 1.427790e-02 4.959002e-02 -8.913739e-02 7.999305e-03 4.690567e-02 1.432043e-02 1.377174e-02 7.685995e-01 -6.063843e-01 8.338988e-03 4.627008e-02 4.958503e-02 -8.148710e-02
2.922500e+11 -9.650321e-02 2.363508e-02 4.089226e-02 9.666870e-03 7.639202e-01 -6.112387e-01 1.377719e-02 1.297531e-02 4.091854e-02 9.696204e-03 -8.812321e-02 2.394258e-02 1.282185e-02 1.260918e-02 7.646710e-01 -6.125883e-01 7.709307e-01 -6.045881e-01 1.461354e-02 1.429344e-02 4.971090e-02 -8.963205e-02 8.042026e-03 4.705727e-02 1.442895e-02 1.378529e-02 7.673011e-01 -6.079059e-01 8.383692e-03 4.641861e-02 4.970283e-02 -8.195937e-02
2.931250e+11 -9.698663e-02 2.410780e-02 4.105368e-02 9.528859e-03 7.625956e-01 -6.127639e-01 1.388309e-02 1.298741e-02 4.108031e-02 9.558149e-03 -8.857381e-02 2.438256e-02 1.292304e-02 1.262303e-02 7.633507e-01 -6.141218e-01 7.696509e-01 -6.061099e-01 1.472361e-02 1.430861e-02 4.983091e-02 -9.012824e-02 8.084929e-03 4.720901e-02 1.453790e-02 1.379846e-02 7.659990e-01 -6.094243e-01 8.428569e-03 4.656721e-02 4.981981e-02 -8.243309e-02
2.940000e+11 -9.746961e-02 2.458388e-02 4.121475e-02 9.389526e-03 7.612670e-01 -6.142864e-01 1.398944e-02 1.299913e-02 4.124170e-02 9.418764e-03 -8.902399e-02 2.482566e-02 1.302466e-02 1.263652e-02 7.620264e-01 -6.156523e-01 7.683673e-01 -6.076291e-01 1.483416e-02 1.432339e-02 4.995006e-02 -9.062595e-02 8.128017e-03 4.736087e-02 1.464728e-02 1.381123e-02 7.646935e-01 -6.109395e-01 8.473616e-03 4.671588e-02 4.993596e-02 -8.290826e-02
2.948750e+11 -9.795211e-02 2.506333e-02 4.137545e-02 9.248868e-03 7.599344e-01 -6.158062e-01 1.409625e-02 1.301047e-02 4.140272e-02 9.278045e-03 -8.947371e-02 2.527187e-02 1.312673e-02 1.264964e-02 7.606981e-01 -6.171799e-01 7.670797e-01 -6.091457e-01 1.494518e-02 1.433778e-02 5.006833e-02 -9.112518e-02 8.171292e-03 4.751286e-02 1.475709e-02 1.382361e-02 7.633845e-01 -6.124515e-01 8.518830e-03 4.686461e-02 5.005128e-02 -8.338487e-02
2.957500e+11 -9.843410e-02 2.554615e-02 4.153577e-02 9.106882e-03 7.585977e-01 -6.173231e-01 1.420350e-02 1.302141e-02 4.156335e-02 9.135991e-03 -8.992294e-02 2.572120e-02 1.322923e-02 1.266239e-02 7.593657e-01 -6.187044e-01 7.657882e-01 -6.106597e-01 1.505666e-02 1.435178e-02 5.018571e-02 -9.162593e-02 8.214758e-03 4.766498e-02 1.486733e-02 1.383559e-02 7.620720e-01 -6.139604e-01 8.564208e-03 4.701341e-02 5.016576e-02 -8.386293e-02
2.966250e+11 -9.891557e-02 2.603235e-02 4.169570e-02 8.963564e-03 7.572569e-01 -6.188371e-01 1.431121e-02 1.303197e-02 4.172359e-02 8.992599e-03 -9.037167e-02 2.617365e-02 1.333217e-02 1.267477e-02 7.580294e-01 -6.202259e-01 7.644927e-01 -6.121711e-01 1.516861e-02 1.436539e-02 5.030219e-02 -9.212818e-02 8.258416e-03 4.781723e-02 1.497799e-02 1.384718e-02 7.607562e-01 -6.154660e-01 8.609747e-03 4.716228e-02 5.027942e-02 -8.434244e-02
2.975000e+11 -9.939647e-02 2.652194e-02 4.185524e-02 8.818912e-03 7.559121e-01 -6.203481e-01 1.441938e-02 1.304213e-02 4.188341e-02 8.847869e-03 -9.081987e-02 2.662922e-02 1.343555e-02 1.268678e-02 7.566890e-01 -6.217441e-01 7.631933e-01 -6.136797e-01 1.528103e-02 1.437860e-02 5.041776e-02 -9.263194e-02 8.302268e-03 4.796959e-02 1.508909e-02 1.385837e-02 7.594371e-01 -6.169684e-01 8.655443e-03 4.731121e-02 5.039224e-02 -8.482340e-02
2.983750e+11 -9.987678e-02 2.701492e-02 4.201436e-02 8.672923e-03 7.545631e-01 -6.218562e-01 1.452799e-02 1.305189e-02 4.204282e-02 8.701797e-03 -9.126750e-02 2.708790e-02 1.353936e-02 1.269841e-02 7.553448e-01 -6.232592e-01 7.618899e-01 -6.151856e-01 1.539392e-02 1.439140e-02 5.053241e-02 -9.313719e-02 8.346317e-03 4.812208e-02 1.520061e-02 1.386917e-02 7.581147e-01 -6.184676e-01 8.701295e-03 4.746021e-02 5.050422e-02 -8.530581e-02
2.992500e+11 -1.003565e-01 2.751130e-02 4.217307e-02 8.525594e-03 7.532101e-01 -6.233612e-01 1.463705e-02 1.306125e-02 4.220180e-02 8.554383e-03 -9.171454e-02 2.754969e-02 1.364361e-02 1.270966e-02 7.539966e-01 -6.247711e-01 7.605826e-01 -6.166887e-01 1.550728e-02 1.440380e-02 5.064615e-02 -9.364393e-02 8.390565e-03 4.827469e-02 1.531256e-02 1.387956e-02 7.567890e-01 -6.199636e-01 8.747298e-03 4.760928e-02 5.061536e-02 -8.578968e-02
3.001250e+11 -1.008355e-01 2.801107e-02 4.233136e-02 8.376924e-03 7.518530e-01 -6.248631e-01 1.474657e-02 1.307020e-02 4.236034e-02 8.405627e-03 -9.216097e-02 2.801458e-02 1.374829e-02 1.272052e-02 7.526445e-01 -6.262797e-01 7.592713e-01 -6.181889e-01 1.562111e-02 1.441578e-02 5.075895e-02 -9.415216e-02 8.435013e-03 4.842741e-02 1.542493e-02 1.388956e-02 7.554602e-01 -6.214565e-01 8.793449e-03 4.775843e-02 5.072565e-02 -8.627500e-02
3.010000e+11 -1.013139e-01 2.851424e-02 4.248920e-02 8.226910e-03 7.504919e-01 -6.263619e-01 1.485654e-02 1.307874e-02 4.251844e-02 8.255527e-03 -9.260675e-02 2.848257e-02 1.385341e-02 1.273100e-02 7.512886e-01 -6.277849e-01 7.579560e-01 -6.196862e-01 1.573540e-02 1.442735e-02 5.087081e-02 -9.466187e-02 8.479662e-03 4.858025e-02 1.553773e-02 1.389915e-02 7.541282e-01 -6.229462e-01 8.839746e-03 4.790764e-02 5.083510e-02 -8.676179e-02
3.018750e+11 -1.017915e-01 2.902081e-02 4.264660e-02 8.075550e-03 7.491267e-01 -6.278574e-01 1.496695e-02 1.308687e-02 4.267607e-02 8.104084e-03 -9.305188e-02 2.895365e-02 1.395895e-02 1.274109e-02 7.499288e-01 -6.292868e-01 7.566369e-01 -6.211805e-01 1.585016e-02 1.443850e-02 5.098173e-02 -9.517305e-02 8.524514e-03 4.873319e-02 1.565096e-02 1.390835e-02 7.527931e-01 -6.244327e-01 8.886185e-03 4.805693e-02 5.094371e-02 -8.725004e-02
3.027500e+11 -1.022684e-01 2.953078e-02 4.280354e-02 7.922844e-03 7.477574e-01 -6.293497e-01 1.507781e-02 1.309457e-02 4.283323e-02 7.951296e-03 -9.349631e-02 2.942781e-02 1.406493e-02 1.275079e-02 7.485653e-01 -6.307853e-01 7.553138e-01 -6.226718e-01 1.596539e-02 1.444923e-02 5.109169e-02 -9.568570e-02 8.569569e-03 4.888624e-02 1.576462e-02 1.391715e-02 7.514549e-01 -6.259162e-01 8.932763e-03 4.820629e-02 5.105145e-02 -8.773976e-02
3.036250e+11 -1.027445e-01 3.004414e-02 4.296002e-02 7.768789e-03 7.463841e-01 -6.308386e-01 1.518912e-02 1.310186e-02 4.298992e-02 7.797165e-03 -9.394003e-02 2.990504e-02 1.417134e-02 1.276010e-02 7.471981e-01 -6.322803e-01 7.539867e-01 -6.241600e-01 1.608108e-02 1.445953e-02 5.120070e-02 -9.619981e-02 8.614827e-03 4.903940e-02 1.587871e-02 1.392555e-02 7.501137e-01 -6.273965e-01 8.979479e-03 4.835574e-02 5.115835e-02 -8.823096e-02
3.045000e+11 -1.032198e-01 3.056089e-02 4.311601e-02 7.613384e-03 7.450069e-01 -6.323242e-01 1.530088e-02 1.310872e-02 4.314612e-02 7.641691e-03 -9.438302e-02 3.038534e-02 1.427818e-02 1.276902e-02 7.458271e-01 -6.337719e-01 7.526558e-01 -6.256451e-01 1.619723e-02 1.446939e-02 5.130875e-02 -9.671538e-02 8.660290e-03 4.919266e-02 1.599323e-02 1.393355e-02 7.487694e-01 -6.288739e-01 9.026328e-03 4.850526e-02 5.126437e-02 -8.872364e-02
3.053750e+11 -1.036943e-01 3.108103e-02 4.327152e-02 7.456629e-03 7.436256e-01 -6.338064e-01 1.541308e-02 1.311516e-02 4.330182e-02 7.484874e-03 -9.482525e-02 3.086869e-02 1.438545e-02 1.277755e-02 7.444525e-01 -6.352600e-01 7.513210e-01 -6.271270e-01 1.631385e-02 1.447883e-02 5.141583e-02 -9.723241e-02 8.705957e-03 4.934602e-02 1.610818e-02 1.394114e-02 7.474222e-01 -6.303482e-01 9.073310e-03 4.865488e-02 5.136953e-02 -8.921781e-02
3.062500e+11 -1.041679e-01 3.160455e-02 4.342653e-02 7.298524e-03 7.422405e-01 -6.352850e-01 1.552572e-02 1.312116e-02 4.345701e-02 7.326715e-03 -9.526671e-02 3.135508e-02 1.449314e-02 1.278567e-02 7.430744e-01 -6.367445e-01 7.499824e-01 -6.286057e-01 1.643093e-02 1.448783e-02 5.152194e-02 -9.775088e-02 8.751827e-03 4.949948e-02 1.622356e-02 1.394834e-02 7.460719e-01 -6.318196e-01 9.120423e-03 4.880459e-02 5.147382e-02 -8.971348e-02
3.071250e+11 -1.046406e-01 3.213144e-02 4.358103e-02 7.139068e-03 7.408514e-01 -6.367602e-01 1.563881e-02 1.312674e-02 4.361168e-02 7.167217e-03 -9.570738e-02 3.184451e-02 1.460127e-02 1.279340e-02 7.416927e-01 -6.382256e-01 7.486400e-01 -6.300811e-01 1.654846e-02 1.449638e-02 5.162707e-02 -9.827079e-02 8.797901e-03 4.965303e-02 1.633938e-02 1.395514e-02 7.447188e-01 -6.332881e-01 9.167664e-03 4.895439e-02 5.157723e-02 -9.021065e-02
3.080000e+11 -1.051124e-01 3.266170e-02 4.373501e-02 6.978261e-03 7.394584e-01 -6.382318e-01 1.575233e-02 1.313188e-02 4.376582e-02 7.006379e-03 -9.614723e-02 3.233696e-02 1.470982e-02 1.280074e-02 7.403075e-01 -6.397031e-01 7.472939e-01 -6.315532e-01 1.666646e-02 1.450450e-02 5.173123e-02 -9.879215e-02 8.844176e-03 4.980667e-02 1.645563e-02 1.396153e-02 7.433626e-01 -6.347537e-01 9.215033e-03 4.910429e-02 5.167975e-02 -9.070933e-02
3.088750e+11 -1.055832e-01 3.319531e-02 4.388846e-02 6.816104e-03 7.380617e-01 -6.396998e-01 1.586630e-02 1.313658e-02 4.391943e-02 6.844204e-03 -9.658625e-02 3.283241e-02 1.481879e-02 1.280767e-02 7.389189e-01 -6.411771e-01 7.459440e-01 -6.330220e-01 1.678491e-02 1.451217e-02 5.183440e-02 -9.931493e-02 8.890652e-03 4.996040e-02 1.657233e-02 1.396753e-02 7.420035e-01 -6.362164e-01 9.262530e-03 4.925430e-02 5.178137e-02 -9.120953e-02
3.097500e+11 -1.060530e-01 3.373227e-02 4.404137e-02 6.652597e-03 7.366611e-01 -6.411642e-01 1.598070e-02 1.314084e-02 4.407250e-02 6.680694e-03 -9.702443e-02 3.333087e-02 1.492820e-02 1.281420e-02 7.375269e-01 -6.426475e-01 7.445904e-01 -6.344873e-01 1.690381e-02 1.451939e-02 5.193659e-02 -9.983915e-02 8.937326e-03 5.011422e-02 1.668946e-02 1.397312e-02 7.406415e-01 -6.376764e-01 9.310152e-03 4.940443e-02 5.188209e-02 -9.171126e-02
3.106250e+11 -1.065219e-01 3.427257e-02 4.419373e-02 6.487742e-03 7.352569e-01 -6.426249e-01 1.609554e-02 1.314467e-02 4.422502e-02 6.515850e-03 -9.746176e-02 3.383231e-02 1.503802e-02 1.282034e-02 7.361315e-01 -6.441144e-01 7.432332e-01 -6.359493e-01 1.702317e-02 1.452617e-02 5.203780e-02 -1.003648e-01 8.984198e-03 5.026812e-02 1.680705e-02 1.397831e-02 7.392765e-01 -6.391337e-01 9.357902e-03 4.955466e-02 5.198189e-02 -9.221453e-02
3.115000e+11 -1.069897e-01 3.481618e-02 4.434553e-02 6.321538e-03 7.338489e-01 -6.440819e-01 1.621081e-02 1.314805e-02 4.437697e-02 6.349674e-03 -9.789822e-02 3.433673e-02 1.514828e-02 1.282607e-02 7.347329e-01 -6.455778e-01 7.418723e-01 -6.374078e-01 1.714299e-02 1.453249e-02 5.213802e-02 -1.008919e-01 9.031264e-03 5.042210e-02 1.692508e-02 1.398309e-02 7.379085e-01 -6.405883e-01 9.405779e-03 4.970502e-02 5.208076e-02 -9.271934e-02
3.123750e+11 -1.074564e-01 3.536311e-02 4.449677e-02 6.153988e-03 7.324374e-01 -6.455352e-01 1.632652e-02 1.315099e-02 4.452836e-02 6.182168e-03 -9.833379e-02 3.484411e-02 1.525896e-02 1.283141e-02 7.333311e-01 -6.470377e-01 7.405080e-01 -6.388628e-01 1.726325e-02 1.453836e-02 5.223724e-02 -1.014204e-01 9.078523e-03 5.057616e-02 1.704356e-02 1.398747e-02 7.365375e-01 -6.420403e-01 9.453784e-03 4.985551e-02 5.217870e-02 -9.322570e-02
3.132500e+11 -1.079221e-01 3.591333e-02 4.464743e-02 5.985094e-03 7.310222e-01 -6.469847e-01 1.644266e-02 1.315349e-02 4.467917e-02 6.013335e-03 -9.876848e-02 3.535445e-02 1.537007e-02 1.283634e-02 7.319261e-01 -6.484940e-01 7.391402e-01 -6.403143e-01 1.738396e-02 1.454378e-02 5.233548e-02 -1.019503e-01 9.125971e-03 5.073031e-02 1.716250e-02 1.399144e-02 7.351635e-01 -6.434897e-01 9.501920e-03 5.000613e-02 5.227569e-02 -9.373363e-02
3.141250e+11 -1.083867e-01 3.646684e-02 4.479750e-02 5.814856e-03 7.296036e-01 -6.484305e-01 1.655923e-02 1.315554e-02 4.482940e-02 5.843177e-03 -9.920227e-02 3.586773e-02 1.548161e-02 1.284087e-02 7.305179e-01 -6.499469e-01 7.377689e-01 -6.417624e-01 1.750513e-02 1.454875e-02 5.243272e-02 -1.024817e-01 9.173606e-03 5.088453e-02 1.728189e-02 1.399501e-02 7.337864e-01 -6.449366e-01 9.550187e-03 5.015689e-02 5.237171e-02 -9.424312e-02
3.150000e+11 -1.088501e-01 3.702361e-02 4.494698e-02 5.643276e-03 7.281814e-01 -6.498725e-01 1.667624e-02 1.315715e-02 4.497904e-02 5.671695e-03 -9.963515e-02 3.638395e-02 1.559357e-02 1.284501e-02 7.291067e-01 -6.513964e-01 7.363943e-01 -6.432069e-01 1.762673e-02 1.455325e-02 5.252898e-02 -1.030145e-01 9.221425e-03 5.103884e-02 1.740175e-02 1.399817e-02 7.324062e-01 -6.463810e-01 9.598589e-03 5.030779e-02 5.246675e-02 -9.475420e-02
3.158750e+11 -1.093124e-01 3.758364e-02 4.509586e-02 5.470357e-03 7.267559e-01 -6.513108e-01 1.679367e-02 1.315832e-02 4.512809e-02 5.498891e-03 -1.000671e-01 3.690309e-02 1.570597e-02 1.284874e-02 7.276924e-01 -6.528425e-01 7.350163e-01 -6.446479e-01 1.774879e-02 1.455731e-02 5.262423e-02 -1.035487e-01 9.269424e-03 5.119322e-02 1.752208e-02 1.400091e-02 7.310228e-01 -6.478230e-01 9.647129e-03 5.045885e-02 5.256080e-02 -9.526685e-02
3.167500e+11 -1.097736e-01 3.814691e-02 4.524413e-02 5.296100e-03 7.253270e-01 -6.527453e-01 1.691154e-02 1.315903e-02 4.527654e-02 5.324768e-03 -1.004982e-01 3.742516e-02 1.581880e-02 1.285207e-02 7.262751e-01 -6.542852e-01 7.336351e-01 -6.460854e-01 1.787129e-02 1.456090e-02 5.271849e-02 -1.040843e-01 9.317599e-03 5.134768e-02 1.764287e-02 1.400324e-02 7.296362e-01 -6.492625e-01 9.695810e-03 5.061006e-02 5.265384e-02 -9.578110e-02
3.176250e+11 -1.102336e-01 3.871341e-02 4.539178e-02 5.120508e-03 7.238949e-01 -6.541760e-01 1.702983e-02 1.315931e-02 4.542438e-02 5.149328e-03 -1.009283e-01 3.795014e-02 1.593206e-02 1.285500e-02 7.248548e-01 -6.557246e-01 7.322506e-01 -6.475194e-01 1.799424e-02 1.456404e-02 5.281176e-02 -1.046214e-01 9.365947e-03 5.150221e-02 1.776415e-02 1.400516e-02 7.282464e-01 -6.506997e-01 9.744637e-03 5.076144e-02 5.274585e-02 -9.629695e-02
3.185000e+11 -1.106924e-01 3.928312e-02 4.553880e-02 4.943583e-03 7.224595e-01 -6.556031e-01 1.714855e-02 1.315914e-02 4.557162e-02 4.972570e-03 -1.013576e-01 3.847803e-02 1.604576e-02 1.285753e-02 7.234316e-01 -6.571607e-01 7.308630e-01 -6.489499e-01 1.811763e-02 1.456672e-02 5.290402e-02 -1.051599e-01 9.414465e-03 5.165683e-02 1.788590e-02 1.400666e-02 7.268533e-01 -6.521345e-01 9.793614e-03 5.091298e-02 5.283681e-02 -9.681440e-02
3.193750e+11 -1.111500e-01 3.985603e-02 4.568520e-02 4.765326e-03 7.210209e-01 -6.570263e-01 1.726771e-02 1.315852e-02 4.571823e-02 4.794498e-03 -1.017859e-01 3.900883e-02 1.615990e-02 1.285966e-02 7.220054e-01 -6.585936e-01 7.294723e-01 -6.503769e-01 1.824147e-02 1.456895e-02 5.299529e-02 -1.056998e-01 9.463148e-03 5.181154e-02 1.800813e-02 1.400773e-02 7.254567e-01 -6.535670e-01 9.842746e-03 5.106470e-02 5.292671e-02 -9.733347e-02
3.202500e+11 -1.116064e-01 4.043213e-02 4.583095e-02 4.585740e-03 7.195792e-01 -6.584459e-01 1.738729e-02 1.315746e-02 4.586423e-02 4.615111e-03 -1.022132e-01 3.954254e-02 1.627447e-02 1.286139e-02 7.205763e-01 -6.600233e-01 7.280786e-01 -6.518005e-01 1.836575e-02 1.457072e-02 5.308556e-02 -1.062412e-01 9.511992e-03 5.196632e-02 1.813085e-02 1.400838e-02 7.240567e-01 -6.549972e-01 9.892039e-03 5.121659e-02 5.301553e-02 -9.785415e-02
3.211250e+11 -1.120616e-01 4.101140e-02 4.597606e-02 4.404827e-03 7.181344e-01 -6.598619e-01 1.750731e-02 1.315596e-02 4.600961e-02 4.434411e-03 -1.026397e-01 4.007915e-02 1.638949e-02 1.286272e-02 7.191442e-01 -6.614500e-01 7.266818e-01 -6.532207e-01 1.849047e-02 1.457203e-02 5.317482e-02 -1.067840e-01 9.560995e-03 5.212119e-02 1.825406e-02 1.400860e-02 7.226532e-01 -6.564251e-01 9.941499e-03 5.136866e-02 5.310324e-02 -9.837644e-02
3.220000e+11 -1.125156e-01 4.159383e-02 4.612053e-02 4.222588e-03 7.166866e-01 -6.612741e-01 1.762775e-02 1.315402e-02 4.615435e-02 4.252398e-03 -1.030652e-01 4.061867e-02 1.650496e-02 1.286365e-02 7.177093e-01 -6.628736e-01 7.252821e-01 -6.546374e-01 1.861565e-02 1.457289e-02 5.326307e-02 -1.073283e-01 9.610152e-03 5.227616e-02 1.837777e-02 1.400839e-02 7.212460e-01 -6.578507e-01 9.991132e-03 5.152092e-02 5.318983e-02 -9.890036e-02
3.228750e+11 -1.129684e-01 4.217942e-02 4.626433e-02 4.039025e-03 7.152358e-01 -6.626829e-01 1.774863e-02 1.315163e-02 4.629847e-02 4.069071e-03 -1.034898e-01 4.116111e-02 1.662087e-02 1.286418e-02 7.162715e-01 -6.642942e-01 7.238795e-01 -6.560508e-01 1.874127e-02 1.457329e-02 5.335032e-02 -1.078741e-01 9.659459e-03 5.243121e-02 1.850198e-02 1.400773e-02 7.198352e-01 -6.592740e-01 1.004094e-02 5.167337e-02 5.327527e-02 -9.942590e-02
3.237500e+11 -1.134199e-01 4.276815e-02 4.640748e-02 3.854139e-03 7.137820e-01 -6.640880e-01 1.786995e-02 1.314880e-02 4.644196e-02 3.884430e-03 -1.039135e-01 4.170646e-02 1.673724e-02 1.286430e-02 7.148307e-01 -6.657118e-01 7.224740e-01 -6.574609e-01 1.886734e-02 1.457325e-02 5.343655e-02 -1.084213e-01 9.708913e-03 5.258636e-02 1.862669e-02 1.400664e-02 7.184205e-01 -6.606949e-01 1.009094e-02 5.182601e-02 5.335954e-02 -9.995306e-02
3.246250e+11 -1.138702e-01 4.336001e-02 4.654996e-02 3.667932e-03 7.123253e-01 -6.654897e-01 1.799171e-02 1.314554e-02 4.658480e-02 3.698475e-03 -1.043363e-01 4.225474e-02 1.685407e-02 1.286403e-02 7.133870e-01 -6.671267e-01 7.210656e-01 -6.588678e-01 1.899386e-02 1.457275e-02 5.352177e-02 -1.089701e-01 9.758511e-03 5.274162e-02 1.875191e-02 1.400510e-02 7.170020e-01 -6.621136e-01 1.014114e-02 5.197884e-02 5.344263e-02 -1.004818e-01
3.255000e+11 -1.143193e-01 4.395501e-02 4.669178e-02 3.480405e-03 7.108657e-01 -6.668879e-01 1.811390e-02 1.314183e-02 4.672701e-02 3.511204e-03 -1.047582e-01 4.280596e-02 1.697136e-02 1.286335e-02 7.119403e-01 -6.685387e-01 7.196545e-01 -6.602715e-01 1.912083e-02 1.457179e-02 5.360597e-02 -1.095203e-01 9.808249e-03 5.289698e-02 1.887764e-02 1.400311e-02 7.155795e-01 -6.635298e-01 1.019153e-02 5.213187e-02 5.352450e-02 -1.010123e-01
3.263750e+11 -1.147672e-01 4.455313e-02 4.683292e-02 3.291557e-03 7.094032e-01 -6.682828e-01 1.823654e-02 1.313769e-02 4.686858e-02 3.322614e-03 -1.051791e-01 4.336013e-02 1.708911e-02 1.286227e-02 7.104906e-01 -6.699480e-01 7.182405e-01 -6.616720e-01 1.924825e-02 1.457039e-02 5.368914e-02 -1.100720e-01 9.858125e-03 5.305246e-02 1.900388e-02 1.400065e-02 7.141531e-01 -6.649437e-01 1.024214e-02 5.228510e-02 5.360514e-02 -1.015443e-01
3.272500e+11 -1.152138e-01 4.515438e-02 4.697339e-02 3.101389e-03 7.079379e-01 -6.696743e-01 1.835962e-02 1.313312e-02 4.700950e-02 3.132703e-03 -1.055991e-01 4.391726e-02 1.720733e-02 1.286078e-02 7.090379e-01 -6.713546e-01 7.168238e-01 -6.630695e-01 1.937614e-02 1.456854e-02 5.377128e-02 -1.106252e-01 9.908136e-03 5.320805e-02 1.913064e-02 1.399774e-02 7.127225e-01 -6.663551e-01 1.029296e-02 5.243853e-02 5.368452e-02 -1.020779e-01
3.281250e+11 -1.156592e-01 4.575875e-02 4.711317e-02 2.909901e-03 7.064698e-01 -6.710626e-01 1.848315e-02 1.312810e-02 4.714977e-02 2.941468e-03 -1.060183e-01 4.447737e-02 1.732603e-02 1.285889e-02 7.075821e-01 -6.727585e-01 7.154043e-01 -6.644639e-01 1.950448e-02 1.456624e-02 5.385237e-02 -1.111800e-01 9.958281e-03 5.336377e-02 1.925792e-02 1.399435e-02 7.112877e-01 -6.677641e-01 1.034400e-02 5.259215e-02 5.376262e-02 -1.026132e-01
3.290000e+11 -1.161034e-01 4.636625e-02 4.725228e-02 2.717091e-03 7.049988e-01 -6.724477e-01 1.860714e-02 1.312265e-02 4.728940e-02 2.748906e-03 -1.064365e-01 4.504048e-02 1.744521e-02 1.285659e-02 7.061231e-01 -6.741599e-01 7.139821e-01 -6.658554e-01 1.963329e-02 1.456350e-02 5.393242e-02 -1.117363e-01 1.000856e-02 5.351963e-02 1.938572e-02 1.399049e-02 7.098486e-01 -6.691704e-01 1.039528e-02 5.274597e-02 5.383943e-02 -1.031500e-01
3.298750e+11 -1.165463e-01 4.697687e-02 4.739070e-02 2.522959e-03 7.035249e-01 -6.738297e-01 1.873158e-02 1.311677e-02 4.742837e-02 2.555012e-03 -1.068537e-01 4.560661e-02 1.756487e-02 1.285388e-02 7.046610e-01 -6.755588e-01 7.125571e-01 -6.672440e-01 1.976257e-02 1.456030e-02 5.401141e-02 -1.122941e-01 1.005896e-02 5.367562e-02 1.951405e-02 1.398615e-02 7.084052e-01 -6.705742e-01 1.044680e-02 5.289999e-02 5.391491e-02 -1.036885e-01
3.307500e+11 -1.169880e-01 4.759063e-02 4.752843e-02 2.327502e-03 7.020482e-01 -6.752087e-01 1.885648e-02 1.311045e-02 4.756668e-02 2.359781e-03 -1.072701e-01 4.617577e-02 1.768502e-02 1.285075e-02 7.031956e-01 -6.769552e-01 7.111293e-01 -6.686299e-01 1.989232e-02 1.455666e-02 5.408933e-02 -1.128535e-01 1.010950e-02 5.383176e-02 1.964291e-02 1.398132e-02 7.069574e-01 -6.719752e-01 1.049856e-02 5.305421e-02 5.398905e-02 -1.042285e-01
3.316250e+11 -1.174286e-01 4.820754e-02 4.766547e-02 2.130718e-03 7.005686e-01 -6.765847e-01 1.898185e-02 1.310370e-02 4.770434e-02 2.163208e-03 -1.076855e-01 4.674800e-02 1.780566e-02 1.284721e-02 7.017269e-01 -6.783492e-01 7.096988e-01 -6.700130e-01 2.002255e-02 1.455258e-02 5.416618e-02 -1.134145e-01 1.016016e-02 5.398806e-02 1.977229e-02 1.397600e-02 7.055052e-01 -6.733735e-01 1.055058e-02 5.320861e-02 5.406183e-02 -1.047701e-01
3.325000e+11 -1.178679e-01 4.882760e-02 4.780182e-02 1.932605e-03 6.990862e-01 -6.779578e-01 1.910769e-02 1.309651e-02 4.784134e-02 1.965286e-03 -1.081000e-01 4.732333e-02 1.792681e-02 1.284325e-02 7.002547e-01 -6.797408e-01 7.082654e-01 -6.713934e-01 2.015326e-02 1.454805e-02 5.424193e-02 -1.139770e-01 1.021095e-02 5.414452e-02 1.990220e-02 1.397018e-02 7.040484e-01 -6.747688e-01 1.060286e-02 5.336321e-02 5.413323e-02 -1.053133e-01
3.333750e+11 -1.183060e-01 4.945082e-02 4.793747e-02 1.733158e-03 6.976007e-01 -6.793280e-01 1.923401e-02 1.308889e-02 4.797767e-02 1.766010e-03 -1.085136e-01 4.790176e-02 1.804846e-02 1.283887e-02 6.987791e-01 -6.811301e-01 7.068292e-01 -6.727712e-01 2.028445e-02 1.454307e-02 5.431658e-02 -1.145412e-01 1.026187e-02 5.430115e-02 2.003264e-02 1.396385e-02 7.025870e-01 -6.761612e-01 1.065540e-02 5.351799e-02 5.420322e-02 -1.058580e-01
3.342500e+11 -1.187429e-01 5.007723e-02 4.807243e-02 1.532373e-03 6.961123e-01 -6.806955e-01 1.936081e-02 1.308084e-02 4.811333e-02 1.565370e-03 -1.089262e-01 4.848335e-02 1.817062e-02 1.283407e-02 6.972999e-01 -6.825169e-01 7.053902e-01 -6.741466e-01 2.041614e-02 1.453765e-02 5.439010e-02 -1.151069e-01 1.031292e-02 5.445797e-02 2.016361e-02 1.395700e-02 7.011211e-01 -6.775505e-01 1.070822e-02 5.367296e-02 5.427181e-02 -1.064043e-01
3.351250e+11 -1.191786e-01 5.070684e-02 4.820668e-02 1.330246e-03 6.946209e-01 -6.820603e-01 1.948811e-02 1.307235e-02 4.824831e-02 1.363361e-03 -1.093378e-01 4.906811e-02 1.829329e-02 1.282883e-02 6.958170e-01 -6.839015e-01 7.039482e-01 -6.755195e-01 2.054833e-02 1.453178e-02 5.446250e-02 -1.156743e-01 1.036410e-02 5.461497e-02 2.029510e-02 1.394964e-02 6.996505e-01 -6.789367e-01 1.076132e-02 5.382810e-02 5.433896e-02 -1.069520e-01
3.360000e+11 -1.196131e-01 5.133968e-02 4.834024e-02 1.126771e-03 6.931264e-01 -6.834225e-01 1.961589e-02 1.306342e-02 4.838262e-02 1.159973e-03 -1.097485e-01 4.965608e-02 1.841648e-02 1.282316e-02 6.943303e-01 -6.852837e-01 7.025032e-01 -6.768900e-01 2.068103e-02 1.452547e-02 5.453374e-02 -1.162433e-01 1.041542e-02 5.477218e-02 2.042713e-02 1.394175e-02 6.981753e-01 -6.803195e-01 1.081469e-02 5.398341e-02 5.440466e-02 -1.075013e-01
3.368750e+11 -1.200464e-01 5.197576e-02 4.847308e-02 9.219411e-04 6.916288e-01 -6.847821e-01 1.974418e-02 1.305406e-02 4.851625e-02 9.551982e-04 -1.101582e-01 5.024730e-02 1.854020e-02 1.281706e-02 6.928398e-01 -6.866636e-01 7.010552e-01 -6.782581e-01 2.081423e-02 1.451870e-02 5.460382e-02 -1.168140e-01 1.046688e-02 5.492959e-02 2.055969e-02 1.393333e-02 6.966954e-01 -6.816989e-01 1.086836e-02 5.413889e-02 5.446891e-02 -1.080521e-01
3.377500e+11 -1.204785e-01 5.261511e-02 4.860522e-02 7.157504e-04 6.901279e-01 -6.861392e-01 1.987297e-02 1.304425e-02 4.864919e-02 7.490263e-04 -1.105668e-01 5.084178e-02 1.866444e-02 1.281051e-02 6.913453e-01 -6.880412e-01 6.996041e-01 -6.796241e-01 2.094796e-02 1.451149e-02 5.467270e-02 -1.173863e-01 1.051847e-02 5.508722e-02 2.069277e-02 1.392438e-02 6.952109e-01 -6.830748e-01 1.092231e-02 5.429453e-02 5.453168e-02 -1.086044e-01
3.386250e+11 -1.209094e-01 5.325776e-02 4.873664e-02 5.081911e-04 6.886237e-01 -6.874939e-01 2.000228e-02 1.303400e-02 4.878143e-02 5.414479e-04 -1.109744e-01 5.143957e-02 1.878923e-02 1.280351e-02 6.898467e-01 -6.894164e-01 6.981498e-01 -6.809878e-01 2.108221e-02 1.450382e-02 5.474038e-02 -1.179603e-01 1.057021e-02 5.524508e-02 2.082637e-02 1.391489e-02 6.937217e-01 -6.844470e-01 1.097655e-02 5.445032e-02 5.459297e-02 -1.091581e-01
3.395000e+11 -1.213391e-01 5.390375e-02 4.886735e-02 2.992551e-04 6.871162e-01 -6.888461e-01 2.013211e-02 1.302331e-02 4.891297e-02 3.324528e-04 -1.113810e-01 5.204070e-02 1.891454e-02 1.279606e-02 6.883439e-01 -6.907892e-01 6.966923e-01 -6.823493e-01 2.121699e-02 1.449570e-02 5.480683e-02 -1.185360e-01 1.062210e-02 5.540317e-02 2.096050e-02 1.390484e-02 6.922279e-01 -6.858155e-01 1.103108e-02 5.460626e-02 5.465278e-02 -1.097132e-01
3.403750e+11 -1.217676e-01 5.455309e-02 4.899733e-02 8.893378e-05 6.856051e-01 -6.901959e-01 2.026247e-02 1.301216e-02 4.904379e-02 1.220306e-04 -1.117864e-01 5.264520e-02 1.904041e-02 1.278816e-02 6.868369e-01 -6.921596e-01 6.952313e-01 -6.837088e-01 2.135231e-02 1.448712e-02 5.487203e-02 -1.191134e-01 1.067415e-02 5.556151e-02 2.109515e-02 1.389425e-02 6.907295e-01 -6.871800e-01 1.108591e-02 5.476234e-02 5.471108e-02 -1.102698e-01
3.412500e+11 -1.221949e-01 5.520583e-02 4.912659e-02 -1.227822e-04 6.840905e-01 -6.915434e-01 2.039336e-02 1.300057e-02 4.917390e-02 -8.982947e-05 -1.121907e-01 5.325311e-02 1.916681e-02 1.277978e-02 6.853255e-01 -6.935275e-01 6.937670e-01 -6.850661e-01 2.148818e-02 1.447809e-02 5.493596e-02 -1.196924e-01 1.072636e-02 5.572010e-02 2.123032e-02 1.388311e-02 6.892266e-01 -6.885406e-01 1.114103e-02 5.491855e-02 5.476790e-02 -1.108277e-01
3.421250e+11 -1.226210e-01 5.586200e-02 4.925512e-02 -3.359028e-04 6.825722e-01 -6.928886e-01 2.052480e-02 1.298851e-02 4.930328e-02 -3.031383e-04 -1.125939e-01 5.386446e-02 1.929377e-02 1.277094e-02 6.838096e-01 -6.948929e-01 6.922990e-01 -6.864214e-01 2.162461e-02 1.446858e-02 5.499858e-02 -1.202732e-01 1.077874e-02 5.587896e-02 2.136600e-02 1.387140e-02 6.877192e-01 -6.898970e-01 1.119643e-02 5.507489e-02 5.482321e-02 -1.113871e-01
3.430000e+11 -1.230458e-01 5.652164e-02 4.938291e-02 -5.504382e-04 6.810501e-01 -6.942314e-01 2.065678e-02 1.297600e-02 4.943192e-02 -5.179070e-04 -1.129959e-01 5.447928e-02 1.942128e-02 1.276162e-02 6.822892e-01 -6.962557e-01 6.908275e-01 -6.877746e-01 2.176159e-02 1.445861e-02 5.505989e-02 -1.208556e-01 1.083129e-02 5.603808e-02 2.150220e-02 1.385914e-02 6.862074e-01 -6.912493e-01 1.125213e-02 5.523136e-02 5.487702e-02 -1.119478e-01
3.438750e+11 -1.234693e-01 5.718478e-02 4.950996e-02 -7.663992e-04 6.795242e-01 -6.955719e-01 2.078932e-02 1.296302e-02 4.955980e-02 -7.341467e-04 -1.133967e-01 5.509761e-02 1.954935e-02 1.275182e-02 6.807641e-01 -6.976158e-01 6.893521e-01 -6.891259e-01 2.189915e-02 1.444817e-02 5.511986e-02 -1.214398e-01 1.088403e-02 5.619748e-02 2.163890e-02 1.384631e-02 6.846913e-01 -6.925972e-01 1.130811e-02 5.538793e-02 5.492934e-02 -1.125099e-01
3.447500e+11 -1.238916e-01 5.785147e-02 4.963625e-02 -9.837972e-04 6.779942e-01 -6.969102e-01 2.092243e-02 1.294957e-02 4.968693e-02 -9.518685e-04 -1.137961e-01 5.571946e-02 1.967797e-02 1.274152e-02 6.792343e-01 -6.989731e-01 6.878729e-01 -6.904750e-01 2.203728e-02 1.443725e-02 5.517845e-02 -1.220256e-01 1.093696e-02 5.635716e-02 2.177612e-02 1.383292e-02 6.831709e-01 -6.939406e-01 1.136436e-02 5.554462e-02 5.498016e-02 -1.130733e-01
3.456250e+11 -1.243126e-01 5.852174e-02 4.976178e-02 -1.202644e-03 6.764602e-01 -6.982460e-01 2.105610e-02 1.293565e-02 4.981328e-02 -1.171084e-03 -1.141943e-01 5.634486e-02 1.980716e-02 1.273073e-02 6.776996e-01 -7.003275e-01 6.863897e-01 -6.918222e-01 2.217599e-02 1.442584e-02 5.523564e-02 -1.226132e-01 1.099008e-02 5.651713e-02 2.191383e-02 1.381896e-02 6.816465e-01 -6.952796e-01 1.142089e-02 5.570141e-02 5.502949e-02 -1.136380e-01
3.465000e+11 -1.247322e-01 5.919564e-02 4.988655e-02 -1.422950e-03 6.749218e-01 -6.995796e-01 2.119034e-02 1.292124e-02 4.993884e-02 -1.391803e-03 -1.145911e-01 5.697385e-02 1.993691e-02 1.271944e-02 6.761601e-01 -7.016790e-01 6.849024e-01 -6.931672e-01 2.231529e-02 1.441395e-02 5.529141e-02 -1.232025e-01 1.104342e-02 5.667739e-02 2.205204e-02 1.380444e-02 6.801181e-01 -6.966140e-01 1.147768e-02 5.585830e-02 5.507735e-02 -1.142040e-01
3.473750e+11 -1.251505e-01 5.987320e-02 5.001053e-02 -1.644730e-03 6.733792e-01 -7.009107e-01 2.132517e-02 1.290634e-02 5.006359e-02 -1.614036e-03 -1.149865e-01 5.760645e-02 2.006722e-02 1.270764e-02 6.746156e-01 -7.030274e-01 6.834109e-01 -6.945102e-01 2.245519e-02 1.440155e-02 5.534574e-02 -1.237935e-01 1.109697e-02 5.683796e-02 2.219075e-02 1.378935e-02 6.785858e-01 -6.979437e-01 1.153473e-02 5.601528e-02 5.512374e-02 -1.147713e-01
3.482500e+11 -1.255674e-01 6.055447e-02 5.013372e-02 -1.867994e-03 6.718321e-01 -7.022394e-01 2.146058e-02 1.289095e-02 5.018753e-02 -1.837795e-03 -1.153804e-01 5.824267e-02 2.019810e-02 1.269533e-02 6.730662e-01 -7.043726e-01 6.819151e-01 -6.958510e-01 2.259570e-02 1.438866e-02 5.539858e-02 -1.243863e-01 1.115075e-02 5.699883e-02 2.232995e-02 1.377370e-02 6.770498e-01 -6.992687e-01 1.159202e-02 5.617236e-02 5.516867e-02 -1.153399e-01
3.491250e+11 -1.259829e-01 6.123949e-02 5.025611e-02 -2.092755e-03 6.702804e-01 -7.035655e-01 2.159658e-02 1.287505e-02 5.031063e-02 -2.063089e-03 -1.157728e-01 5.888253e-02 2.032954e-02 1.268249e-02 6.715117e-01 -7.057144e-01 6.804148e-01 -6.971896e-01 2.273681e-02 1.437526e-02 5.544993e-02 -1.249807e-01 1.120477e-02 5.716001e-02 2.246964e-02 1.375748e-02 6.755102e-01 -7.005890e-01 1.164955e-02 5.632952e-02 5.521217e-02 -1.159098e-01
3.500000e+11 -1.263969e-01 6.192828e-02 5.037768e-02 -2.319025e-03 6.687241e-01 -7.048891e-01 2.173318e-02 1.285864e-02 5.043287e-02 -2.289927e-03 -1.161636e-01 5.952604e-02 2.046155e-02 1.266913e-02 6.699522e-01 -7.070527e-01 6.789100e-01 -6.985260e-01 2.287854e-02 1.436133e-02 5.549975e-02 -1.255768e-01 1.125903e-02 5.732150e-02 2.260982e-02 1.374070e-02 6.739672e-01 -7.019045e-01 1.170731e-02 5.648677e-02 5.525424e-02 -1.164809e-01
