! Created with skrf 1.9.0 (http://scikit-rf.org).
# GHz S DB R 50.0 
!freq dBS11 angS11 dBS12 angS12 dBS13 angS13
! dBS14 angS14
! dBS21 angS21 dBS22 angS22 dBS23 angS23
! dBS24 angS24
! dBS31 angS31 dBS32 angS32 dBS33 angS33
! dBS34 angS34
! dBS41 angS41 dBS42 angS42 dBS43 angS43
! dBS44 angS44
!
0.0 -46.57347866891808 0.0 -63.154936704142685 0.0 -0.04054860234771051 0.0 -62.19336492538645 180.0
 -63.15493670723325 0.0 -46.57850653674658 0.0 -62.19376427001562 180.0 -0.040514148494789654 0.0
 -0.0405486023477202 0.0 -62.19376427318917 180.0 -46.6049022960454 0.0 -63.16955812919588 0.0
 -62.19336493169727 180.0 -0.04051414849457553 0.0 -63.16955812260609 0.0 -46.607491018588156 0.0
5.014492753623188 -46.10237342220583 -4.691450817585919 -57.48346402457827 43.17516825961167 -0.04755756184763052 -0.7342749903999395 -61.42122410139465 171.03475645223668
 -57.48346402482901 43.17516826273493 -46.152458697353936 -4.016648604580535 -61.41977545648948 171.06495037199826 -0.04748017910271822 -0.727565380942543
 -0.04755756184764215 -0.7342749903997782 -61.419775457135344 171.06495037395882 -45.97085030567524 -4.586123810381752 -57.42272458622865 44.56613733421681
 -61.421224101679066 171.03475645209843 -0.047480179102693004 -0.7275653809432333 -57.42272458589718 44.56613733404833 -46.03113853328793 -3.8930100020502856
10.028985507246375 -45.609939250944066 -10.841955527738046 -53.73020355842971 57.828367387212936 -0.05235790863617859 -1.4345266921773934 -60.267965759984904 161.116542457485
 -53.73020355830135 57.8283673866591 -45.68981174232213 -9.406776172771444 -60.262756822227736 161.14867663544695 -0.05224146080215902 -1.4212603624309543
 -0.052357908636171804 -1.4345266921773907 -60.26275682209031 161.1486766365988 -45.16811118230553 -10.560209746947605 -53.65418440567233 60.31560815839216
 -60.267965759931464 161.11654245562005 -0.052241460802165816 -1.4212603624310827 -53.654184405609556 60.31560815880834 -45.27649560676076 -9.16068254739462
15.043478260869565 -44.97826725058771 -17.903348833909998 -51.038738714240914 62.231147825366705 -0.05640394908352622 -2.1241086310897783 -58.853134429408655 151.01011041268757
 -51.038738714190835 62.231147825454705 -45.095786338022 -15.84689292866567 -58.84518414422387 151.0394237815399 -0.05623760083557748 -2.1043725296348006
 -0.05640394908352429 -2.1241086310897788 -58.84518414423417 151.03942378236215 -44.13002986061226 -16.83496884509169 -50.957104702841164 65.84270234851653
 -58.85313442948962 151.01011041189284 -0.056237600835564866 -2.104372529634768 -50.95710470277548 65.84270234820525 -44.29603203569221 -14.967053778025711
20.05797101449275 -44.31134136411266 -25.74482771654498 -49.02708476075518 64.84648064570217 -0.060134146958932794 -2.8073008354254703 -57.45416480567527 141.91744442435413
 -49.027084760797294 64.84648064563324 -44.48099389654064 -23.20515269007986 -57.444317336513535 141.95473750846375 -0.059916521818354225 -2.7812210950153493
 -0.06013414695892405 -2.80730083542547 -57.4443173364698 141.95473750777475 -43.02776055521698 -23.030707497364165 -48.93575112844262 69.60668114876526
 -57.454164805719884 141.91744442476462 -0.059916521818343546 -2.781221095015358 -48.93575112848072 69.60668114878632 -43.25714385965001 -20.900162059308233
25.07246376811594 -43.658932407961814 -33.700030733696195 -47.413013833483646 66.16955483265697 -0.06330169278351044 -3.4860578709069023 -56.15100190722599 134.15291009468376
 -47.413013833522484 66.16955483275677 -43.89041565638429 -30.802121860661774 -56.13952942179861 134.20417819416772 -0.06303684802311675 -3.453684844544165
 -0.0633016927835085 -3.4860578709069023 -56.13952942180842 134.204178193415 -41.94532238077558 -28.573889131410777 -47.31003568121233 72.05901979390701
 -56.15100190725269 134.15291009505697 -0.06303684802311578 -3.4536848445441626 -47.310035681236315 72.05901979390902 -42.2349287524768 -26.329830307060067
30.08695652173913 -43.01637477805155 -41.45736308569039 -46.05808116698523 66.93048929864383 -0.06600931297829951 -4.162639772972287 -54.95898728126721 127.65222733898281
 -46.05808116697794 66.93048929859658 -43.31456537487723 -38.31543131773356 -54.94611585753583 127.720923180748 -0.06569967894749061 -4.123996792654041
 -0.06600931297830048 -4.162639772972287 -54.9461158575395 127.7209231810705 -40.907553412831206 -33.319033844003 -45.94364414219544 73.93519861045422
 -54.95898728130132 127.65222733909242 -0.06569967894748284 -4.123996792654041 -45.94364414220735 73.93519861045269 -41.250189809861666 -31.059600344843904
35.10144927536232 -42.378391472909634 -48.86178735650221 -44.885526441072365 67.2692537840196 -0.06836035039621383 -4.838155462039829 -53.87207204199355 122.19458248034195
 -44.88552644107817 67.2692537840313 -42.74377258236037 -45.576418166361044 -53.857961781996984 122.28220980566128 -0.0680069704132843 -4.793249562503051
 -0.06836035039621188 -4.838155462039828 -53.85796178200182 122.28220980555533 -39.922902445417904 -37.29055869895139 -44.76044058039166 75.37938600558967
 -53.872072041959726 122.19458248040448 -0.06800697041327555 -4.79324956250305 -44.760440580386025 75.37938600565865 -40.31020780689893 -35.0746642134314
40.1159420289855 -41.74120122458319 -55.85997552414888 -43.8503000496274 67.31617437232237 -0.07045834142050694 -5.513206143726156 -52.87886344753282 117.5615905280137
 -43.850300049640026 67.31617437223163 -42.17102750130505 -52.516062128136056 -52.863632483197435 117.66867121234354 -0.07006107805345074 -5.462037752445284
 -0.070458341420505 -5.513206143726155 -52.86363248315488 117.66867121237864 -38.99220521848657 -40.58937158244399 -43.71541739756235 76.52645082019008
 -52.87886344753235 117.56159052754109 -0.07006107805343909 -5.462037752445284 -43.715417397540165 76.52645082006198 -39.416313092867 -38.44946748459629
45.13043478260869 -41.10398486533778 -62.443326132220534 -42.923082606446776 67.13959226924536 -0.07237829977937958 -6.1880713739309785 -51.967517273311465 113.5708693008135
 -42.923082606439124 67.13959226929053 -41.59337733268681 -59.1092155704053 -51.951247484732704 113.69738337450836 -0.07193629506359228 -6.130637102253842
 -0.07237829977938834 -6.188071373930979 -51.95124748477593 113.69738337453894 -38.11338800532053 -43.32778769875733 -42.779082948783824 77.44732998246262
 -51.96751727333429 113.57086930072983 -0.07193629506358937 -6.130637102253842 -42.77908294879061 77.44732998242317 -38.56752829836997 -41.27962833660307
50.14492753623188 -40.467510097771964 -68.62554019991975 -42.08347350682965 66.7915801822256 -0.07417380182694812 -6.862889005081491 -51.12730500865286 110.0811884255901
 -42.083473506819345 66.79158018232224 -41.01038918219125 -65.35367777151907 -51.11005144108855 110.22684738217106 -0.07368573407960205 -6.799182913340427
 -0.07417380182695006 -6.862889005081491 -51.11005144115996 110.226847382228 -37.283076938971924 -45.608725653030504 -41.93082991607062 78.1956370857346
 -51.12730500865414 110.08118842554272 -0.07368573407959426 -6.799182913340429 -41.93082991607285 78.19563708573769 -37.76167707362649 -43.65805798112242
55.15942028985507 -39.833305915428696 -74.4298593653202 -41.316501155099004 66.3087057824381 -0.07588194165975669 -7.5377289647026675 -50.34894974879406 106.98540915330682
 -41.31650115508827 66.3087057823321 -40.42310021763777 -71.25842543064938 -50.33074769374196 107.14979391655571 -0.07534618049738233 -7.4677428739283975
 -0.075881941659746 -7.537728964702665 -50.33074769372711 107.14979391685357 -36.49746031521717 -47.51879937133816 -41.15550336962614 78.80873999497538
 -50.34894974880309 106.98540915302065 -0.07534618049736969 -7.467742873928399 -41.15550336962559 78.80873999490132 -36.99603045472364 -45.66561313055263
60.17391304347826 -39.20309176407848 -79.88311740623334 -40.61077327626376 65.71837682764598 -0.07752884131832492 -8.212632673686198 -49.62456966451961 104.20265696800831
 -40.61077327626256 65.71837682762337 -39.83323598699121 -76.83817196186193 -49.60544019472308 104.38529239064334 -0.07694352208896393 -8.136356240985391
 -0.07752884131833172 -8.212632673686196 -49.60544019473873 104.38529239070402 -35.752698407555826 -49.12848717481261 -40.441565818818326 79.31444262242577
 -49.62456966452127 104.20265696777568 -0.07694352208896393 -8.136356240985391 -40.44156581881854 79.31444262236714 -36.267654012580394 -47.36961956964033
65.18840579710144 -38.5784948215769 -85.0126403461782 -39.957384545658385 65.04113583627311 -0.07913332918325912 -8.887629749349284 -48.947501623790785 101.67156605482043
 -39.95738454565841 65.0411358362942 -39.242751081931985 -82.11038246749108 -48.92745556151681 101.87195846688476 -0.07849638433284281 -8.805050466684504
 -0.07913332918325912 -8.887629749349284 -48.92745556151104 101.87195846669694 -35.045132391657006 -50.494287996768534 -39.780002654445994 79.73345750720024
 -48.947501623790465 101.67156605479826 -0.0784963843328321 -8.805050466684504 -39.780002654445695 79.73345750718558 -35.5736177012664 -48.824979122616774
70.20289855072464 -37.96092366704782 -89.84475313559147 -39.34923059902599 64.29267747392737 -0.08070946828471719 -9.562745427779303 -48.312109437453536 99.34514910530135
 -39.34923059902686 64.2926774739475 -38.65356753139389 -87.09365016577998 -48.29115019598784 99.5628047747386 -0.08001863428121408 -9.473848630468368
 -0.080709468284724 -9.562745427779303 -48.29115019598649 99.56280477462019 -34.37137854252137 -51.661315026266266 -39.16362946534403 80.08153364624076
 -48.31210943745336 99.34514910529212 -0.08001863428121603 -9.473848630468366 -39.16362946534498 80.08153364623531 -34.91111397527425 -50.07611885613895
75.21739130434783 -37.351531983418326 -94.40408937738334 -38.78055061755547 63.485124298219034 -0.08226817612511332 -10.23800339487193 -47.713610131779475 97.18702355881558
 -38.78055061754614 63.48512429813334 -38.06744149010743 -91.80674771882077 -47.69173575168746 97.42145682477182 -0.08152098810831647 -10.142772296371081
 -0.08226817612512502 -10.238003394871928 -47.69173575167809 97.42145682499195 -33.728361977491346 -52.66564143625789 -38.586627623084105 80.37079214811452
 -47.7136101317804 97.18702355867427 -0.0815209881082863 -10.14277229637108 -38.58662762307478 80.37079214807284 -34.277520046572924 -51.15894743449133
80.231884057971 -36.75122593433904 -98.71333611059924 -38.246609475539 62.6279625628847 -0.0838182665570155 -10.91342672931592 -47.147926882199386 95.1686819520595
 -38.24660947553664 62.62796256288149 -37.48590511826137 -96.26806761103113 -47.125131517080135 95.4194180287565 -0.08301204724339288 -10.811842483191553
 -0.08381826655701745 -10.913426729315923 -47.125131517079836 95.41941802874372 -33.11331769896809 -53.53624129977405 -38.044220527783025 80.61069484598225
 -47.147926882196096 95.16868195204769 -0.0830120472433997 -10.811842483191555 -38.04422052778059 80.61069484599065 -33.670425090384526 -52.10256339921661
85.24637681159419 -36.16069063852504 -102.79320344260908 -37.743469490661695 61.72870283140096 -0.08536711589911966 -11.58903807287457 -46.611567873739745 93.26751963066205
 -37.74346949067139 61.72870283140147 -36.91025159579178 -100.49529065215178 -46.58784289850847 93.53409473979073 -0.08449896237066842 -11.481079855486884
 -0.08536711589912939 -11.589038072874567 -46.58784289849824 93.53409473976548 -32.52377498833886 -54.296526312182664 -37.53244078209785 80.80872165634742
 -46.61156787376971 93.26751963058284 -0.08449896237065284 -11.481079855486882 -37.53244078210785 80.80872165630286 -33.0876363785858 -52.93065399656542
90.26086956521738 -35.58042253402891 -106.66250787528845 -37.26782241041263 60.79335984118446 -0.08692109387427194 -12.264859549192723 -46.10152757183979 91.46540428030995
 -37.267822410414894 60.79335984123088 -36.341543359554954 -104.5051972866909 -46.07686242922172 91.74736457828047 -0.08598786409958095 -12.150504656325207
 -0.08692109387427291 -12.264859549192723 -46.076862429229884 91.74736457816918 -31.957534029636623 -54.96553964724451 -37.04795878050676 80.97085840420726
 -46.10152757183396 91.4654042802772 -0.08598786409957707 -12.150504656325207 -37.047958780508 80.97085840419837 -32.52717315391717 -53.6626081039022
95.27536231884058 -35.010761292546746 -110.33830745524514 -36.81686326271401 59.826802197486614 -0.08848584680542973 -12.9409126355287 -45.61520645052569 89.74763049213779
 -36.81686326270405 59.82680219749426 -35.78063181395418 -108.31357041260492 -45.58958931217879 90.04453057337824 -0.08748414677536177 -12.820136586848294
 -0.08848584680542779 -12.9409126355287 -45.58958931218051 90.04453057333464 -31.41263973941372 -55.558876116619615 -36.58795409873549 81.10194967622597
 -45.615206450524546 89.74763049212964 -0.08748414677536177 -12.820136586848296 -36.58795409873543 81.1019496762374 -31.987253837246136 -54.31438961301189
100.28985507246377 -34.45191854820817 -113.83605539330813 -36.38819409447401 58.83301042940726 -0.09006648817063047 -13.617218060204474 -45.150345625267704 88.10214860538423
 -36.38819409447277 58.833010429404574 -35.228181693351 -111.93515801121117 -45.12376391577651 88.41354999802454 -0.08899265999470382 -13.489994707324053
 -0.09006648817063923 -13.617218060204475 -45.12376391577607 88.4135499979902 -30.887355513993768 -56.08939063894654 -36.15001747620759 81.20595754689992
 -45.15034562525769 88.10214860539321 -0.0889926599947116 -13.489994707324053 -36.15001747620675 81.20595754690787 -31.466280036542805 -54.89921957011914
105.30434782608694 -33.90400257594838 -117.1697544781371 -35.97974950071284 57.815269254338155 -0.09166773045654851 -14.293795741059498 -44.70497343504567 86.51899001045821
 -35.979749500713076 57.815269254347875 -34.68469626825056 -115.38367490047989 -44.677414250588406 86.84445987089371 -0.09051784148802958 -14.160097375987853
 -0.09166773045655924 -14.293795741059498 -44.677414250588605 86.84445987083623 -30.380138314847763 -56.567745251826224 -35.73207510520119 81.28615329174791
 -44.70497343505389 86.51899001055665 -0.09051784148803055 -14.160097375987853 -35.73207510521081 81.28615329177742 -30.96281947261476 -55.42810906322883
110.31884057971014 -33.367038943628444 -120.35210348787182 -35.589738316342256 56.77631241149742 -0.09329397924211393 -14.970664759618934 -44.27736160051127 84.98983431771602
 -35.58973831634243 56.77631241150006 -34.15054137711812 -118.6718297649114 -44.248812040254094 85.32894441232882 -0.09206381215490693 -14.83046222151636
 -0.09329397924211393 -14.970664759618934 -44.24881204025374 85.32894441226917 -29.88961576947449 -57.002833660584265 -35.33232945651251 81.34526113499594
 -44.27736160051295 84.98983431774407 -0.09206381215491082 -14.83046222151636 -35.33232945651386 81.34526113500777 -30.475589071355653 -55.9102768831677
115.33333333333333 -32.84098753889273 -123.39463171234934 -35.216597468902854 55.71843295314584 -0.09494940238444544 -15.647843359721538 -43.86598907357852 83.50767994297861
 -35.216597468901995 55.71843295312719 -33.625967316579704 -121.81136800534142 -43.83643649426983 83.86000593389036 -0.09363444605352245 -15.501106138741829
 -0.09494940238444641 -15.647843359721538 -43.83643649427099 83.86000593394304 -29.414565541449544 -57.40211290681537 -34.9492125372512 81.38556727432596
 -43.865989073577936 83.50767994302386 -0.09363444605350099 -15.501106138741829 -34.94921253725063 81.38556727434474 -30.003438924912714 -56.35347853887206
120.34782608695652 -32.325756489041694 -126.30782037157009 -34.85895509236147 54.64356816561954 -0.09663798225147063 -16.32534896057415 -43.46951208674331 82.06659087926005
 -34.85895509237117 54.64356816560711 -33.111128223167086 -124.81312389309151 -43.43894428488588 82.43171187511608 -0.0952334232440264 -16.172045298069662
 -0.09663798225145992 -16.32534896057415 -43.43894428487523 82.43171187512623 -28.95389698505412 -57.77186436934246 -34.581348611259976 81.40900354077804
 -43.46951208674405 82.0665908793079 -0.09523342324403614 -16.172045298069666 -34.58134861126093 81.40900354079672 -29.54533748009531 -56.76426701930413
125.3623188405797 -31.821213486789127 -129.1012111126793 -34.5156007675472 53.553365666588604 -0.0983635559375791 -17.003198176591784 -43.086739213603366 80.66150020502748
 -34.515600767548385 53.553365666595894 -32.60609891109642 -127.68707754739073 -43.05514453760702 81.03899849561533 -0.09686427040100996 -16.84329516154376
 -0.09836355593758789 -17.003198176591788 -43.05514453761581 81.03899849558823 -28.506634971673446 -58.11740071332808 -34.22752420091884 81.41721235367247
 -43.08673921359441 80.6615002051171 -0.09686427040100996 -16.84329516154376 -34.227524200909045 81.41721235371215 -29.100358099114242 -57.14820081508873
130.37681159420288 -31.327194980135555 -131.78350245416584 -34.18546129689168 52.4492353697187 -0.10012984659241046 -17.681406839662962 -42.71661048593418 79.28805628996895
 -34.18546129689139 52.44923536974002 -32.110889304593634 -130.4424136777832 -42.68397788276349 79.67751714450776 -0.09853039232209321 -17.514870501743903
 -0.10012984659241242 -17.68140683966296 -42.6839778827641 79.67751714446264 -28.071905711300836 -58.44323122752297 -33.88666374584267 81.41159776700927
 -42.71661048592354 79.28805628999883 -0.09853039232209027 -17.5148705017439 -33.88666374584175 81.41159776702332 -28.667667008003388 -57.510010974543405
135.3913043478261 -30.84351361529288 -134.36263533703112 -33.86758081545411 51.332390679295756 -0.10194048795401878 -18.359990021997444 -42.35817979605311 77.9425013974768
 -33.86758081545419 51.3323906792955 -31.625456685573635 -133.0875800579362 -42.32449880244276 78.34351278872704 -0.10023509645427373 -18.186785422460684
 -0.10194048795401878 -18.359990021997444 -42.324498802452155 78.3435127887491 -27.648924366303792 -58.75319490078387 -33.557809691924135 81.39336608577038
 -42.358179796051445 77.94250139746654 -0.10023509645417616 -18.186785422460684 -33.5578096919236 81.39336608577025 -28.246512572501747 -57.85373615249648
140.40579710144928 -30.369964257308748 -136.84586902541548 -33.561104332294306 50.20388133154897 -0.10379904364050842 -19.038962059792365 -42.010599963694126 76.62157497676279
 -33.56110433229429 50.203881331577165 -31.149716010415215 -135.63034441363243 -41.9758606610127 77.03372710547589 -0.10198161207229856 -18.859053381675103
 -0.10379904364050939 -19.038962059792368 -41.97586066101388 77.03372710539358 -27.23698425196988 -59.05056831350477 -33.24010607271663 81.36355858034935
 -42.01059996370411 76.62157497676337 -0.10198161207228684 -18.859053381675107 -33.240106072726306 81.36355858035004 -27.836215801433752 -58.182832509268195
145.42028985507244 -29.90632885785168 -139.23984854999813 -33.26526401811292 49.06461964920199 -0.105709022506807 -19.71833657824919 -41.67310998018464 75.3224357647152
 -33.26526401811293 49.06461964920699 -30.683548554669308 -138.0778489071052 -41.63730293961068 75.74532031722472 -0.10377310553999071 -19.531687217710314
 -0.105709022506807 -19.71833657824919 -41.63730293961038 75.74532031720737 -26.835447428677806 -59.33815373841072 -32.93278485971768 81.32307811797062
 -41.67310998018561 75.32243576468863 -0.10377310553999071 -19.531687217710314 -32.932784859718765 81.32307811796113 -27.436161961809773 -58.50026374842682
150.43478260869566 -29.452380394759118 -141.5506647689839 -32.97936772191731 47.915401558907845 -0.10767389122742713 -20.398126518092983 -41.34502406283722 74.04259819670662
 -32.97936772191731 47.91540155888729 -30.226809133495443 -140.43666171201386 -41.30814030997232 74.47580735973345 -0.10561269295085703 -20.204699178469635
 -0.10767389122742713 -20.398126518092983 -41.308140309972416 74.47580735981624 -26.44373650922795 -59.618351592435594 -32.63515452218147 81.2727110017712
 -41.34502406283712 74.04259819667386 -0.10561269295086287 -20.20469917846963 -32.6351545221812 81.27271100176935 -27.045793190836168 -58.80857539868689
155.44927536231882 -29.007886068908427 -143.78390795703447 -32.702789320194945 46.75692347735368 -0.10969708506298949 -21.07834416209004 -41.02572225373112 72.77987976218793
 -32.70278932019493 46.756923477352586 -29.77933212293027 -142.71282537113385 -40.98775327510431 73.22300511291874 -0.10750345120245934 -20.878100951428998
 -0.10969708506298949 -21.07834416209004 -40.98775327510423 73.22300511289737 -26.06132752608496 -59.8932204310276 -32.34659036810993 81.2131449326845
 -41.02572225373065 72.77987976218662 -0.10750345120236074 -20.878100951428994 -32.34659036811001 81.21314493269473 -26.66460199907247 -59.10995652760732
160.463768115942 -28.572609907066578 -145.9447156692585 -32.434960583874044 45.58979601103561 -0.11178201743944702 -21.759001159230717 -40.71464236597794 71.53235691548134
 -32.4349605838741 45.58979601102627 -29.340936476416758 -144.91190174795716 -40.67558016606482 71.98498836189404 -0.10944842814286439 -21.55190369105542
 -0.11178201743944702 -21.759001159230717 -40.675580166065046 71.98498836188087 -25.68774372371117 -60.164526944425376 -32.06652634055675 81.1449837733176
 -40.71464236598697 71.53235691547125 -0.10944842814285559 -21.55190369105542 -32.06652634055671 81.14498377331783 -26.29212557049304 -59.40629134959416
165.47826086956522 -28.146314885239228 -148.03781549208637 -32.17536430116997 44.4145552660385 -0.11393208858745008 -22.44010854368822 -40.41127311362772 70.29832793719783
 -32.17536430116978 44.41455526603759 -28.91142989623456 -147.0390134941258 -40.37111031485895 70.76005287737962 -0.11145065195848429 -22.226118039859333
 -0.11393208858745008 -22.44010854368822 -40.37111031485817 70.76005287735978 -25.322550157863056 -60.433787851993074 -31.794448021477603 81.06875967039399
 -40.41127311363852 70.29832793720723 -0.11145065195848819 -22.226118039859333 -31.794448021477663 81.06875967040354 -25.927940773609066 -59.69920261749023
170.49275362318838 -27.72876465694759 -150.06756321523702 -31.92352843215831 43.23167238896793 -0.11615069318105262 -23.12167674721115 -40.115148266436904 69.07628167319994
 -31.92352843215901 43.23167238896752 -28.490612288610173 -149.0988820616283 -40.073878232885036 69.5466844774665 -0.11351313960922482 -22.900754141472884
 -0.11615069318105262 -23.12167674721115 -40.07387823289505 69.54668447746667 -24.96534899667827 -60.70230516450656 -31.529886649016177 80.98494303217865
 -40.115148266437444 69.07628167319118 -0.11351313960922482 -22.90075414147288 -31.529886649015978 80.98494303217952 -25.571659802479715 -59.990088251438735
175.5072463768116 -27.319724949056884 -152.03797691571248 -31.67902110457009 42.04156176690981 -0.11844122679295008 -23.80371560479848 -39.8258416680712 67.8648713462991
 -31.679021104560263 42.041561766919564 -28.07827860713831 -151.09586239632526 -39.78345863015631 68.34353318087214 -0.11563890400531024 -23.57582164576644
 -0.11844122679295008 -23.80371560479848 -39.78345863015651 68.34353318084281 -24.61577542839045 -60.9711959719996 -31.272413989152227 80.8939508084342
 -39.82584166807152 67.86487134629873 -0.11563890400531024 -23.57582164576644 -31.272413989152923 80.89395080843447 -25.222926368948443 -60.2801523451787
180.52173913043475 -26.918964674461314 -153.95276742456184 -31.441446294366294 40.84458814866731 -0.12080709103574448 -24.486234355410705 -39.54296296157626 66.66289272693504
 -31.441446294365427 40.84458814866811 -27.674221173658463 -153.03397452839326 -39.49946212295683 67.14939166315371 -0.11783095972660322 -24.251329708247983
 -0.12080709103574448 -24.486234355410705 -39.499462122966456 67.14939166315993 -24.273494091357865 -61.24141768726485 -31.02163792611527 80.79615345488686
 -39.542962961567135 66.6628927269174 -0.11783095972660322 -24.251329708247983 -31.021637926105385 80.79615345487755 -24.881412372200696 -60.57043147242392
185.53623188405794 -26.52625680374559 -155.81536561468184 -31.21044006873698 39.64107283667349 -0.12325169740037478 -25.16924163950992 -39.26615388510637 65.46926596539552
 -31.2104400687372 39.641072836673686 -27.27823155567353 -154.9169323164048 -39.22153150116388 65.96317728154557 -0.12009232728445117 -24.927286986368006
 -0.12325169740037478 -25.16924163950992 -39.22153150116471 65.96317728155742 -23.938195951837464 -61.5137895065819 -30.777198654503756 80.69188088080516
 -39.26615388509566 65.46926596536524 -0.12009232728445117 -24.927286986368006 -30.777198654503103 80.69188088079513 -24.546814978163674 -60.86181705964594
190.55072463768116 -26.14137903375942 -157.62894690690356 -30.9856672977895 38.43129904568143 -0.1257784699352875 -25.85274549562048 -38.995085028381645 64.2830204216534
 -30.985667297789426 38.431299045672404 -26.89010207113522 -156.74816960569459 -38.949338453621706 64.7839170003473 -0.1224260361051821 -25.60370163498743
 -0.1257784699352875 -25.85274549562048 -38.94933845362167 64.78391700033849 -23.609595566312148 -61.78901071675422 -30.538765373908802 80.58142759537253
 -38.995085028381105 64.28302042164032 -0.1224260361051821 -25.60370163498743 -30.53876537390838 80.58142759536192 -24.218854050297132 -61.155074470367396
195.56521739130432 -25.76411428780954 -159.39645333639768 -30.76681876403107 37.215516508454684 -0.12839084698338873 -26.5367533569736 -38.72945296864608 63.10328190095391
 -30.76681876403114 37.21551650844359 -26.509626983876093 -158.53086404381023 -38.68258067605496 63.6107346443738 -0.12483512650238898 -26.28058130262654
 -0.12839084698338873 -26.5367533569736 -38.68258067605436 63.61073464436311 -23.28742867449897 -62.067676368068575 -30.306033403309762 80.46505720038816
 -38.72945296864606 63.10328190096579 -0.12483512650238898 -26.28058130262654 -30.306033403319574 80.46505720038816 -23.897269882976197 -61.45085934138859
200.57971014492753 -25.394251077892157 -161.12061347318732 -30.55360861398143 35.99394541142103 -0.13109228219867375 -27.22127204902033 -38.46897772707792 61.92926180561039
 -30.553608613981215 35.99394541142975 -26.136603443998744 -160.26795876774105 -38.42097930540293 62.442840017728926 -0.12732265090636083 -26.957933129141377
 -0.13109228219867375 -27.22127204902033 -38.420979305412956 62.442840017720464 -22.971450078581853 -62.350290740921885 -30.078721648450994 80.34300633076387
 -38.46897772707848 61.929261805572025 -0.12732265090636083 -26.957933129141377 -30.078721648451754 80.34300633075398 -23.58182119667312 -61.74973161979097
205.59420289855072 -25.031583755076525 -162.80396043703283 -30.345772106743635 34.766779746479365 -0.13388624503439883 -27.906307788072258 -38.21340050263192 60.76024781997562
 -30.345772106744416 34.7667797464901 -25.77083221928165 -161.9621821558325 -38.16427663790296 61.279519529940345 -0.12989167457679163 -27.63576374495673
 -0.13388624503439883 -27.906307788072258 -38.16427663790309 61.27951952990943 -22.661431770558398 -62.63727895686066 -29.856570368044146 80.2154881164274
 -38.21340050262205 60.76024781996393 -0.12989167457678966 -27.635763744956726 -29.856570368043947 80.21548811642725 -23.27228336133583 -62.05216766954965
210.60869565217388 -24.675912669718056 -164.4488482175638 -30.143063621393104 33.53419016323684 -0.13677622084557914 -28.591866180868898 -37.96248164939755 59.59559584036567
 -30.1430636213825 33.53419016323733 -25.412118255722458 -163.6160658139468 -37.9122340964372 60.12012805793473 -0.13254527595801838 -28.314079271594025
 -0.13677622084557914 -28.591866180868898 -37.91223409644692 60.12012805794316 -22.35716127587645 -62.92899702159698 -29.639339195560904 80.08269522490498
 -37.962481649396864 59.595595840345304 -0.1325452759580223 -28.31407927159402 -29.63933919556095 80.082695224895 -22.96844681940123 -62.358570749463205
215.6231884057971 -24.32704425916404 -166.0574664752626 -29.94525489008216 32.29632639939854 -0.13976571070769797 -29.277952225059316 -37.715998869800316 58.434722931376484
 -29.945254890091935 32.2963263993984 -25.060271098158747 -165.23196095106715 -37.664630418051985 58.96408183788819 -0.13528654678798652 -28.992885323315736
 -0.139765710707697 -29.27795222505931 -37.66463041805268 58.96408183787951 -22.05844018588715 -63.22574053624665 -29.426805381002488 79.9448025347015
 -37.71599886980049 58.43472293137773 -0.1352865467878876 -28.992885323315743 -29.426805381002488 79.94480253470185 -22.670115684217166 -62.669280109334146
220.63768115942028 -23.984791077213746 -167.6318539780307 -29.75213342843624 31.053319356779614 -0.14285823101783707 -29.96457031034194 -37.47374559885526 57.2771011455574
 -29.752133428427143 31.053319356779692 -24.715105196780286 -166.81205328820516 -37.421260035568025 57.810852227630924 -0.13811859202475257 -29.67218700957894
 -0.14285823101783607 -29.96457031034194 -37.42126003556785 57.810852227629894 -21.76508285532487 -63.52775227241481 -29.218762223340164 79.80196948525048
 -37.473745598855224 57.277101145508354 -0.1381185920247467 -29.67218700957894 -29.21876222334013 79.80196948523086 -22.377106492542534 -62.98457890763756
225.65217391304347 -23.64897177691393 -169.1739108126142 -29.563501137740282 29.805282879263824 -0.14605731292474802 -30.651724220223297 -37.23552955789912 56.12225207677927
 -29.563501137739472 29.80528287926366 -24.376440120049246 -168.35837663091746 -37.18193163067633 56.65996021277547 -0.14104452963741837 -30.351988938085775
 -0.14605731292474705 -30.651724220223304 -37.18193163067638 56.65996021277595 -21.47691524447525 -63.835228773341754 -29.01501766911617 79.65434214374888
 -37.235529557899135 56.12225207677595 -0.14104452963741937 -30.351988938085775 -29.015017669116308 79.65434214374775 -22.08924709288954 -63.30470111910355
230.66666666666666 -23.319411056174808 -170.68540949046192 -29.37917305775548 28.552315278988246 -0.14936650162053342 -31.3394171343452 -37.001171458112275 54.969742045738144
 -29.37917305775568 28.55231527898881 -24.044100691452456 -169.87282522868017 -36.946466837837015 55.51097155297638 -0.1440674902845398 -31.032295218407057
 -0.14936650162053244 -31.3394171343452 -36.94646683783701 55.51097155297546 -21.193773887909295 -64.14832611775361 -28.815393056226625 79.50205502595374
 -37.00117145811227 54.96974204574754 -0.1440674902845359 -31.032295218407057 -28.815393056226135 79.50205502595348 -21.80637565331438 -63.62983757291417
235.68115942028982 -22.995939573728617 -172.16800505915396 -29.198976250804428 27.29450064804976 -0.15278935551875536 -32.02765163128836 -36.77050383604724 53.81917783029673
 -29.198976250804378 27.294500648039516 -23.717917064070203 -171.3571650319015 -36.714699080886525 54.3634924813451 -0.1471906169050108 -31.713109466071515
 -0.15278935551875536 -32.02765163128836 -36.71469908088652 54.36349248135644 -20.915504974551627 -64.46716496072825 -28.61972198506748 79.34523270235675
 -36.77050383604724 53.819177830318246 -0.14719061690501473 -31.713109466071515 -28.6197219850774 79.34523270236699 -21.52833977447347 -63.96014124015983
240.69565217391303 -22.67839384187472 -173.62324431593711 -29.022748801312545 26.031909985715732 -0.15632944534126747 -32.71642969197923 -36.5433700057089 52.670202870263616
 -29.02274880131256 26.03190998572465 -23.39772474484655 -172.81304395089262 -36.48647252627391 53.21716588313802 -0.15041706423766216 -32.39443480712184
 -0.15632944534126156 -32.71642969197923 -36.486472526273914 53.21716588310868 -20.641963525317525 -64.791834949363 -28.427849301578576 79.18399121858246
 -36.5433700057089 52.67020287023494 -0.15041706423756207 -32.39443480712185 -28.4278493015791 79.1839912185732 -21.25499569550925 -64.29573187096072
245.71014492753622 -22.3666161013149 -175.05257421214299 -28.850338916654398 24.764602165546126 -0.15999035313455004 -33.40575270369953 -36.3196231132363 51.52249388358945
 -28.850338916654394 24.764602165556813 -23.083364578205195 -174.24200120986134 -36.26164113899791 52.071667890052545 -0.15374999828714953 -33.07627388333256
 -0.15999035313465024 -33.40575270369952 -36.26164113899789 52.07166789005117 -20.373012656662176 -65.12239859577566 -28.23963017880576 79.01843935364845
 -36.319623113236304 51.52249388358731 -0.1537499982871446 -33.076273883332554 -28.239630178805633 79.01843935364747 -20.986207581699944 -64.63670006683546
250.7246376811594 -22.060454182217867 -176.45734952698078 -28.681604117335688 23.492624761543393 -0.163775671236427 -34.095621464755546 -36.099125282035814 50.37575784163461
 -28.681604117335688 23.4926247615433 -22.774682697237147 -175.64547588197425 -36.04006782889615 50.92670483510977 -0.1571925957563368 -33.75862885789842
 -0.1637756712364319 -34.09562146475554 -36.04006782889623 50.92670483510072 -20.108522919637775 -65.45889467859132 -28.054929285567056 78.84867973770832
 -36.09912528203581 50.375757841644834 -0.15719259575633776 -33.758628857898415 -28.054929285567084 78.84867973771809 -20.721846884406396 -64.98311086170233
255.7391304347826 -21.759761355295208 -177.8388398818993 -28.51641050617551 22.21601474980751 -0.16768900121440639 -34.78603618999121 -35.8817468377907 49.22972925581403
 -28.51641050617551 22.216014749817365 -22.471530449233796 -177.0248146831601 -35.82162367669531 49.78201052008973 -0.1607480434620847 -34.44150142185869
 -0.1676890012144054 -34.786036189991215 -35.82162367669503 49.782010520078984 -19.84837170568782 -65.80134123367019 -27.873620031937843 78.67480984636488
 -35.88174683779073 49.22972925582353 -0.1607480434620837 -34.44150142185869 -27.87362003193784 78.67480984637497 -20.46179176470607 -65.33500687447435
260.75362318840575 -21.464396175871748 -179.19823615813553 -28.3546321076552 20.934799098558504 -0.17173395279929396 -35.47699651703201 -35.667365604039006 48.08416773635405
 -28.354632107655206 20.934799098558948 -22.173764301134074 -178.38127909515146 -35.60618723057967 48.637343754492484 -0.1644195377592206 -35.124892801299296
 -0.17173395279929693 -35.47699651703201 -35.60618723058922 48.63734375449302 -19.592442711120217 -66.14973818667107 -27.695583882915237 78.49692288764561
 -35.6673656040389 48.08416773637441 -0.16441953775922163 -35.12489280129929 -27.695583882915237 78.4969228876555 -20.205926573564554 -65.69241108743135
265.76811594202894 -21.17422232330041 179.4633436237454 -28.196150269677396 19.64899525732231 -0.17591414283990023 -36.168501513523985 -35.45586626021449 46.93885578761795
 -28.196150269677396 19.6489952573222 -21.8812457296297 -179.71605188143548 -35.39364386536348 47.49248612950397 -0.1682102839933669 -35.80880376533214
 -0.17591414283989626 -36.16850151352399 -35.39364386537394 47.49248612948382 -19.340625453645067 -66.50406967266393 -27.520709732579665 78.31510859446652
 -35.455866260214876 46.938855787618316 -0.1682102839933669 -35.80880376533214 -27.520709732579665 78.31510859447685 -19.95414138193308 -66.0553292975882
270.7826086956522 -20.889108437977704 178.14484891237558 -28.040853121197543 18.358611554705515 -0.18023319430469306 -36.86054968537114 -35.24713975507994 45.79359680923367
 -28.040853121197543 18.358611554705547 -21.593841099909675 178.96975694678716 -35.18388519710265 46.34723999626543 -0.17212349601019125 -36.49323463501527
 -0.18023319430479248 -36.86054968537114 -35.18388519710258 46.347239996274524 -19.09281483485302 -66.86430608227606 -27.3488933318731 78.12945393404429
 -35.247139755069874 45.79359680924349 -0.17212349601019125 -36.49323463501527 -27.3488933318731 78.12945393404436 -19.70633155512956 -66.42375228140655
275.7971014492753 -20.60892795749401 176.84529167472218 -27.88863507998776 17.06364751214905 -0.1846947353631649 -37.553138986057604 -35.041082769346225 44.648213276969166
 -27.88863507998776 17.06364751214905 -21.311421536059587 177.6751046614897 -34.976808547283056 45.201426621447105 -0.17616239574900516 -37.17818529322808
 -0.18469473536316883 -37.5531389860576 -34.97680854729296 45.20142662144795 -18.848910743548274 -67.23040586843732 -27.18003676419352 77.94004374408124
 -35.04108276934619 44.648213276969464 -0.17616239574900516 -37.17818529322808 -27.18003676419352 77.94004374409084 -19.46239736667828 -66.79765770848655
280.81159420289856 -20.333558953460805 175.5637418456245 -27.739396405567284 15.764094080434896 -0.18930239857936182 -38.2462668270767 -34.83759722203314 43.502545079194824
 -27.739396405567284 15.764094080434893 -21.0338627860302 176.39901079986257 -34.77231645123851 44.05488449679827 -0.18033021295130233 -37.86365519558303
 -0.18930239857935882 -38.2462668270767 -34.772316451238815 44.05488449678815 -18.608817695291357 -67.60231714339712 -27.01404796352396 77.74696130413264
 -34.837597222023234 43.50254507919505 -0.18033021295130233 -37.86365519558303 -27.01404796352396 77.74696130414294 -19.222243647025003 -67.17701183475576
285.82608695652175 -20.062883970149322 174.29932313770263 -27.593042793017858 14.459933804544162 -0.1940598202546345 -38.93993008956689 -34.63658981557957 42.3564479892317
 -27.593042793017858 14.459933804544178 -20.76104508326871 175.14055255426686 -34.570316205900944 42.90746778280827 -0.18463018501816975 -38.54964338236034
 -0.1940598202546345 -38.93993008956689 -34.570316205900944 42.90746778280808 -18.372444504235084 -67.9799790921184 -26.85084027028836 77.55028884921212
 -34.636589815579256 42.356447989221614 -0.18463018501816975 -38.54964338236034 -26.85084027028836 77.55028884921232 -18.985779463571454 -67.5617710021094
290.8405797101449 -19.796789865847146 173.0512091797301 -27.449485003917772 13.151140921585059 -0.19897063995987133 -39.634125137162336 -34.437971615621365 41.209792254365475
 -27.449485003917772 13.151140921584998 -20.49285300687437 173.89886053096484 -34.370719452967336 41.75904486888581 -0.1890655570549727 -39.23614849165445
 -0.19897063995987133 -39.634125137162336 -34.37071945296709 41.75904486888561 -18.13970398372475 -68.36332322440254 -26.690332020921048 77.35010803171399
 -34.437971615621436 41.20979225436569 -0.1890655570549727 -39.23614849165445 -26.69033202092105 77.35010803171396 -18.752917828397212 -67.95188296786972
295.85507246376807 -19.535167657900338 171.81861995215277 -27.308638531141845 11.837681395961203 -0.2040385002987492 -40.328847829951904 -34.24165766131665 40.06246128566265
 -27.308638531141845 11.837681395961404 -20.229175341853654 172.67311484414208 -34.17344179339495 40.6094970344162 -0.19363958213932098 -39.92316877347061
 -0.20403850029875117 -40.32884782995191 -34.173441793405 40.609497034426234 -17.910512672708535 -68.75227448551259 -26.532446167317655 77.14650033658596
 -34.24165766131663 40.062461285642755 -0.19363958213932098 -39.92316877347061 -26.53244616731765 77.1465003365859 -18.523575430936997 -68.3472880843222
300.8695652173913 -19.277912371996436 170.6008184916303 -27.170423294646504 10.519512895010195 -0.20926704694555068 -41.024093539668854 -34.0475666029146 38.914350432521964
 -27.170423294646504 10.519512895000283 -19.969904940758905 171.46254151238006 -33.978402429988314 39.45871719678021 -0.1983555218570206 -40.610702104996044
 -0.20926704694555168 -41.02409353966884 -33.978402429988314 39.45871719678023 -17.684790585123253 -69.14675224245326 -26.377109922757477 76.93954745331501
 -34.0475666029146 38.91435043252151 -0.1983555218570206 -40.610702104996044 -26.377109922757494 76.93954745331526 -18.297672392872 -68.74792034656946
305.88405797101444 -19.024922896466112 169.39710783973848 -27.034763365758856 9.196584707615397 -0.21465992900288516 -41.71985716592479 -33.855620363485684 37.765365828202036
 -27.034763365758856 9.19658470761217 -19.714938587797977 170.26640913000608 -33.78552383478824 38.30660873278897 -0.20321664714645524 -41.2987460068861
 -0.21465992900298403 -41.719857165924815 -33.785523834798234 38.30660873279898 -17.46246097997083 -69.5466711607368 -26.224254431411268 76.72933160779864
 -33.855620363485684 37.76536582820212 -0.20321664714645524 -41.2987460068861 -26.224254431411214 76.72933160778847 -18.075132042858332 -69.15370832412454
310.89855072463763 -18.776101841894224 168.20682821333415 -26.901586717784923 7.868837607645445 -0.2202207997256097 -42.41613315341083 -33.6657438219333 36.615423291723765
 -26.901586717784923 7.868837607645552 -19.464176866395313 169.08402578659098 -33.594731438551634 37.1530843608502 -0.20822623949859226 -41.98729766048515
 -0.22022079972571054 -42.416133153410826 -33.59473143855165 37.15308436085017 -17.243450150055118 -69.95194198485113 -26.07381445858109 76.51593585563151
 -33.6657438219333 36.61542329172378 -0.20822623949859123 -41.98729766048514 -26.073814458581246 76.51593585564133 -17.85588070917717 -69.5645759903916
315.9130434782609 -18.53135540665423 167.02935437753504 -26.770825001136174 6.536203663044904 -0.225953317656247 -43.11291551002712 -33.477864515146514 35.4644472735079
 -26.770825001136174 6.536203663038854 -19.217524031014484 167.91473621230773 -33.405953339602036 35.99806507103511 -0.2133875925587 -42.6763539260178
 -0.225953317656248 -43.11291551002713 -33.405953339612 35.99806507104518 -17.02768722728425 -70.36247223375999 -25.925728099382624 76.29944433809239
 -33.477864515146514 35.46444727350779 -0.213387592558699 -42.6763539260178 -25.925728099372623 76.29944433809256 -17.639847528370037 -69.98044346204952
320.927536231884 -18.290593248770598 165.8640931999776 -26.642413341422202 5.198605991092696 -0.2318611482211343 -43.81019782569309 -33.29191235697634 34.312369831229006
 -26.6424133414222 5.198605991096631 -18.974887883975835 166.75791912697923 -33.21912003010211 34.841479090210115 -0.21870401417934546 -43.36591136140679
 -0.23186114822113332 -43.81019782569309 -33.21912003010223 34.84147909020032 -16.815104003035305 -70.77816682174627 -25.77993650366754 76.07994250065735
 -33.29191235697634 34.31236983123897 -0.21870401417934546 -43.36591136140679 -25.77993650366742 76.07994250065732 -17.426964268197636 -70.40122765956326
325.9420289855072 -18.05372836433889 164.71048137407925 -26.516290159335107 3.8559584587851017 -0.23794796583879121 -44.50797329179428 -33.10781937245348 33.15912962369984
 -26.516290159335103 3.85595845878416 -18.736179657871062 165.61298477658775 -33.03416413741109 33.68326086953764 -0.22417882897846655 -44.05596624191473
 -0.23794796583879121 -44.50797329179428 -33.03416413741106 33.68326086953739 -16.60563476203285 -71.19892861355478 -25.63638361537727 75.85751727431789
 -33.10781937245348 33.159129623700046 -0.22417882897846655 -44.05596624191474 -25.63638361537729 75.85751727431793 -17.217165163512348 -70.82684289841862
330.95652173913044 -17.820676972735928 163.56798329089355 -26.39239701122975 2.5081653298507978 -0.24421745659274535 -45.20623472103067 -32.92551944609877 32.004670910016095
 -26.39239701122975 2.508165329850765 -18.501313904084395 164.47937263449626 -32.851020179860335 32.52335008122581 -0.22981538145614847 -44.74651458016059
 -0.24421745659274338 -45.20623472103067 -32.85102017986035 32.52335008123597 -16.399216128188264 -71.62465892217803 -25.495015924559738 75.63225721811096
 -32.925519446098775 32.00467091000603 -0.22981538145615044 -44.74651458016059 -25.495015924559734 75.63225721811091 -17.01038676370733 -71.25720142013003
335.9710144927536 -17.591358409652717 162.4360890587812 -26.270678450308075 1.155120849850517 -0.2506733215339584 -45.90497456741408 -32.74494808169303 30.848942543198923
 -26.270678450308075 1.155120849852523 -18.27020838850999 163.35654926706886 -32.66962433376397 31.361690612603393 -0.235617039745758 -45.43755214643144
 -0.25067332153395744 -45.90497456741407 -32.66962433376397 31.361690612583438 -16.195786921660392 -72.05525795675823 -25.355782230632347 75.40425262310826
 -32.74494808169303 30.848942543208835 -0.23561703974565892 -45.43755214643144 -25.355782230632347 75.40425262311824 -16.80656779073303 -71.69221387070279
340.98550724637676 -17.365695025939914 161.31431262449436 -26.151081906902295 -0.20329121157733648 -0.2573192806695094 -46.60418494661273 -32.56604217694744 29.691896944377103
 -26.151081906902295 -0.20329121157862706 -18.04278399284533 162.2440063121926 -32.489914215348186 30.198229543247454 -0.24158720003296963 -46.12907448937453
 -0.2573192806695094 -46.60418494661273 -32.48991421534818 30.198229543247365 -15.99528802502829 -72.49062522742615 -25.21863341573654 75.17359557318134
 -32.566042176947434 29.69189694438713 -0.24158720003296963 -46.12907448937453 -25.218633415736534 75.17359557319139 -16.605649006014694 -72.13178973469027
346.0 -17.1436120977 160.20219006399998 -26.03355759031 -1.5671981085310003 -0.2641590777341998 -47.30385765522 -32.38873980255 28.533489051480004
 -26.03355759031 -1.5671981085310003 -17.818964627070002 161.1412586432 -32.31182866732 29.032916097310004 -0.24772929180019984 -46.82107695588999
 -0.26415907773409836 -47.30385765521999 -32.31182866732 29.032916097310004 -15.797662259639997 -72.9306599137 -25.08352222635 74.94037996752
 -32.38873980255 28.533489051480004 -0.24772929180019984 -46.82107695588999 -25.08352222635 74.94037996751001 -16.40757308696 -72.57583772985001
