! Created with skrf 1.9.0 (http://scikit-rf.org).
# GHz S DB R 50.0 
!freq dBS11 angS11 dBS12 angS12 dBS13 angS13
! dBS14 angS14
! dBS21 angS21 dBS22 angS22 dBS23 angS23
! dBS24 angS24
! dBS31 angS31 dBS32 angS32 dBS33 angS33
! dBS34 angS34
! dBS41 angS41 dBS42 angS42 dBS43 angS43
! dBS44 angS44
!
0.0 -46.57347866891808 0.0 -63.154936704142685 0.0 -0.04054860234771051 0.0 -62.19336492538645 180.0
 -63.15493670723325 0.0 -46.57850653674658 0.0 -62.19376427001562 180.0 -0.040514148494789654 0.0
 -0.0405486023477202 0.0 -62.19376427318917 180.0 -46.6049022960454 0.0 -63.16955812919588 0.0
 -62.19336493169727 180.0 -0.04051414849457553 0.0 -63.16955812260609 0.0 -46.607491018588156 0.0
5.014492753623188 -44.86012121659057 -30.088982850457818 -57.4834993085129 43.316811346232925 -0.04759284578225605 -0.5926319037786797 -61.42125938532928 171.17639953885794
 -57.48349930876364 43.31681134935621 -46.152450875763606 -4.016648146552123 -61.44622181311716 171.2039733342967 -0.0474801932483411 -0.7275652480723169
 -0.04759284578226769 -0.5926319037785186 -61.44622181376388 171.2039733362871 -44.85031826439788 -29.979049134355407 -57.411753717131276 44.61842686743631
 -61.421259385613695 171.1763995387197 -0.04748019324831783 -0.7275652480730073 -57.41175371680059 44.61842686726414 -46.03113928139913 -3.893029949112293
10.028985507246375 -42.09632334287769 -48.721402465349406 -53.73035223446763 58.11159038838391 -0.05250658467409716 -1.1513036910064214 -60.26811443602283 161.399765458656
 -53.730352234339264 58.111590387830084 -45.68978303171393 -9.406641847412018 -60.35129496784635 161.3002324014119 -0.052241517247817275 -1.421259928772401
 -0.052506584674092305 -1.1513036910064192 -60.351294967705954 161.3002324025652 -42.073623861933136 -48.67685613920286 -53.63445629375106 60.337708966355635
 -60.268114435969395 161.39976545679102 -0.05224151724782407 -1.4212599287725292 -53.63445629368816 60.33770896676661 -45.27649914079757 -9.160725800880037
15.043478260869565 -39.4860751837944 -59.12246191560328 -51.03908956593739 62.655882356561 -0.0567548007800088 -1.6993740998954816 -58.85348528110514 151.43484494388187
 -51.03908956588732 62.655882356649 -45.0957283406811 -15.846424952413608 -59.004627347782595 151.04882880759797 -0.05623772278292353 -2.104371413067723
 -0.05675480078000589 -1.6993740998954814 -59.00462734779212 151.048828808437 -39.455804586274624 -59.15388583590449 -50.931397382360075 65.82331480765271
 -58.85348528118611 151.43484494308714 -0.056237722782909935 -2.1043714130676903 -50.931397382294854 65.82331480734032 -44.296041390600124 -14.96712091427203
20.05797101449275 -37.27556937605424 -65.69414162508423 -49.02773715523247 65.41271017187475 -0.06078654143622443 -2.241071309252891 -57.45481720015256 142.4836739505267
 -49.027737155274586 65.41271017180583 -44.480913083513784 -23.204085192726914 -57.66910835962774 141.67210646737547 -0.05991672855966397 -2.7812187434947306
 -0.06078654143621472 -2.2410713092528898 -57.669108359583376 141.67210646666663 -37.245816848314284 -65.78504880964556 -48.905575267423075 69.53464760289
 -57.454817200197176 142.48367395093717 -0.05991672855965329 -2.7812187434947404 -48.90557526746112 69.53464760291249 -43.2571622784965 -20.900248089222707
25.07246376811594 -35.435108632368284 -70.30146803413109 -47.414069420254 66.87733220853555 -0.06435727955386697 -2.7782804950283384 -56.152057493996345 134.86068747056237
 -47.41406942029285 66.87733220863534 -43.89033044312717 -30.800181018932903 -56.41969541677991 133.54926993865124 -0.0630371468126534 -3.4536805164905156
 -0.06435727955386406 -2.7782804950283384 -56.419695416790134 133.54926993787336 -35.40577943600696 -70.43157020484102 -47.27679300720058 71.92923586476047
 -56.152057494023055 134.86068747093552 -0.06303714681265243 -3.453680516490513 -47.27679300722444 71.92923586476392 -42.23495934772659 -26.329925893949763
30.08695652173913 -33.881549893067486 -73.77061601624466 -46.059641443672916 67.77992219007827 -0.06756958966598284 -3.313206881537864 -54.9605475579549 128.50166023041726
 -46.059641443665626 67.77992219003102 -43.31450830314967 -38.31235443331205 -55.272260867263014 126.65167020811427 -0.06570006731020776 -4.123989580809456
 -0.06756958966598381 -3.3132068815378637 -55.27226086726735 126.65167020844773 -33.85217238700549 -73.93167735183435 -45.90860383466654 73.74465529639869
 -54.960547557989 128.50166023052685 -0.06570006731019999 -4.123989580809456 -45.90860383467849 73.7446552963981 -41.250235394752046 -31.05969350398854
35.10144927536232 -32.547755207611 -76.51666411063385 -44.88769145859939 68.2604946099226 -0.07052536792323993 -3.8469146361368334 -53.87423705952058 123.18582330624494
 -44.8876914586052 68.26049460993431 -42.743785538130645 -45.57198318896327 -54.22297335137108 120.78445163149993 -0.06800743227125075 -4.793238386378986
 -0.07052536792324092 -3.8469146361368307 -54.222973351375984 120.78445163138802 -32.51764876916522 -76.70503207865755 -44.72465701879279 75.12709609129625
 -53.87423705948676 123.18582330630748 -0.06800743227124298 -4.793238386378987 -44.724657018787035 75.1270960913644 -40.310270911526665 -35.07474102622436
40.1159420289855 -31.383734061321565 -78.77348104455723 -43.85316833301105 68.44941367490505 -0.07332662480415518 -4.37996684114347 -52.88173173091647 118.69482983059639
 -43.85316833302368 68.44941367481432 -42.171158973698255 -52.51010183205808 -53.26247502972231 115.74144215696172 -0.07006158234130372 -5.462021362721371
 -0.07332662480415518 -4.379966841143467 -53.26247502967807 115.74144215700122 -31.352366044211237 -78.98815365526904 -43.67977497807899 76.21231080601471
 -52.881731730916 118.69482983012378 -0.07006158234129205 -5.462021362721371 -43.67977497805718 76.21231080588598 -39.41639597273479 -38.4495124891548
45.13043478260869 -30.35345886769408 -80.68389693699756 -42.92675111616208 68.41505542083281 -0.07604680949467929 -4.912608222343522 -51.97118578302677 114.84633245240096
 -42.92675111615442 68.415055420878 -41.59367844537364 -59.10162281946405 -52.38057312962847 111.34659264914231 -0.07193679275352213 -6.130614082559731
 -0.07604680949468805 -4.912608222343521 -52.380573129673955 111.34659264916655 -30.320430150015824 -80.92503832301576 -42.74432779259052 77.07172560387478
 -51.97118578304959 114.8463324523173 -0.07193679275351922 -6.130614082559732 -42.74432779259741 77.07172560383584 -38.56763294323291 -41.27962468405138
50.14492753623188 -29.430660595088245 -82.34051583483108 -42.08803763072335 68.20952577192942 -0.07873792572064797 -5.444943415377665 -51.13186913254657 111.49913401529393
 -42.08803763071305 68.20952577202605 -41.01091070060492 -65.34440278065578 -51.56773048419601 107.46133400170085 -0.07368615574546314 -6.799151685124136
 -0.07873792572064992 -5.444943415377667 -51.567730484271834 107.46133400174543 -29.3956859757925 -82.60879828196349 -41.897611169236704 77.75917764804859
 -51.13186913254785 111.49913401524653 -0.07368615574545537 -6.799151685124139 -41.897611169239 77.75917764805142 -37.761805207647555 -43.657987575147615
55.15942028985507 -28.59586975758644 -83.80597727426695 -41.32205462979762 67.86942475984586 -0.08143541635837108 -5.977009987294908 -50.35450322349267 108.54612813071459
 -41.32205462978689 67.86942475973986 -40.423890104013786 -71.24746764923302 -50.815526733699166 103.97951872503303 -0.07534643364395019 -7.467701702228248
 -0.08143541635836135 -5.977009987294903 -50.81552673368459 103.97951872535147 -28.558748271485538 -84.10223525866324 -41.124400641326915 78.31215205492487
 -50.35450322350171 108.54612813042841 -0.07534643364393753 -7.467701702228248 -41.12440064132669 78.31215205485059 -36.996183534168374 -45.66545675607552
60.17391304347826 -27.834361407319683 -85.1241115511973 -40.61740806661539 67.42219195970357 -0.08416363166994963 -6.508817541628613 -49.63120445487124 105.9064721000659
 -40.61740806661418 67.42219195968097 -39.834337797982265 -76.82556940601103 -50.11668748775439 100.82042136994265 -0.07694348859887092 -8.136303241495074
 -0.08416363166995545 -6.508817541628608 -50.11668748777127 100.82042136999928 -27.794952898831788 -85.44917158345007 -40.413109480549714 78.75852020457354
 -49.631204454872886 105.90647209983327 -0.07694348859887092 -8.136303241495074 -40.4131094805502 78.75852020451444 -36.26783322284301 -47.369357031235424
65.18840579710144 -27.134779767184163 -86.32643490056651 -39.96519069289951 66.88840124841029 -0.08693947642438538 -7.040364337212106 -48.955307771031904 103.51883146695761
 -39.96519069289953 66.88840124843138 -39.244203047740825 -82.09620036426071 -49.464984663381976 97.9224672091721 -0.07849591791128681 -8.804983613817738
 -0.08693947642438732 -7.040364337212109 -49.464984663374 97.92246720897681 -27.092987142204166 -86.68103261855322 -39.75468723654598 79.11904417015495
 -48.955307771031585 103.51883146693544 -0.07849591791127611 -8.80498361381774 -39.7546872365457 79.11904417014026 -35.57382395468119 -48.8245893858194
70.20289855072464 -26.488205772320242 -87.4361430661673 -39.358296053049685 66.28377819096319 -0.08977492230841112 -7.571644710743487 -48.321174891477234 101.33624982233715
 -39.35829605305055 66.28377819098333 -38.655402205377804 -87.07797031292252 -48.85509587745443 95.23832684389996 -0.08001755794400005 -9.473765766400707
 -0.08977492230841891 -7.5716447107434846 -48.85509587745186 95.23832684377552 -26.443962038966276 -87.82088622198884 -39.141922803300034 79.40951709851332
 -48.32117489147705 101.33624982232793 -0.08001755794400199 -9.473765766400707 -39.14192280330099 79.40951709850778 -34.91134791021951 -50.07558018890466
75.21739130434783 -25.887517274531398 -88.47065632419907 -38.79096106192935 65.62047575056977 -0.09267862049899254 -8.102651942521192 -47.72402057615335 99.32237501116633
 -38.79096106192002 65.62047575048408 -38.069685806910655 -91.78965927866132 -48.282466844940046 92.73125619846596 -0.08151909169584332 -10.142671141023424
 -0.09267862049900619 -8.102651942521192 -48.28246684493121 92.73125619870586 -25.840776207910395 -88.88601184311221 -38.56897705920906 79.64210428179531
 -47.724020576154274 99.32237501102502 -0.08151909169581216 -10.142671141023422 -38.56897705919995 79.64210428175427 -34.27778202798625 -51.15823754471667
80.231884057971 -25.32694190783736 -89.44329419230445 -38.25844815088662 64.90801005138778 -0.09565694190463664 -8.633379240812845 -47.15976555754701 97.44872944056257
 -38.25844815088426 64.90801005138458 -37.48858072313214 -96.24965965140028 -47.74318868479827 90.37241749549206 -0.08300908496531209 -10.811720645157507
 -0.09565694190463761 -8.63337924081285 -47.743188684797545 90.37241749547981 -25.277671353000617 -89.88958765012764 -38.03105722986829 79.82631363544643
 -47.15976555754372 97.44872944055078 -0.08300908496531989 -10.811720645157509 -38.031057229865894 79.82631363545472 -33.670715211594406 -52.101659565986104
85.24637681159419 -24.801738882921715 -90.36440566931046 -37.75681701938598 64.15392095221749 -0.09871464462340421 -9.163819952058054 -46.624915402464026 95.69273775147857
 -37.75681701939567 64.15392095221797 -36.913375330043884 -100.47564644124323 -47.233893575521705 88.13892727558117 -0.08449465037986897 -11.480934843921688
 -0.09871464462341396 -9.163819952058045 -47.233893575511054 88.1389272755545 -24.74991597136547 -90.84182687544869 -37.52418281165431 79.9696735814453
 -46.62491540249399 95.69273775139936 -0.0844946503798534 -11.480934843921686 -37.52418281166441 79.96967358140263 -33.087954464269714 -52.929533193603206
90.26086956521738 -24.30796838355251 -91.24214927017913 -37.282756624273254 63.36425187501046 -0.10185530773490103 -9.693967515366733 -46.116461785700416 94.03629631413594
 -37.28275662427552 63.364251875056866 -36.34512781673399 -104.4843901849244 -46.75166763642514 86.01243071815483 -0.08598187809805889 -12.150333893823738
 -0.10185530773490202 -9.693967515366731 -46.75166763643301 86.01243071803123 -24.25357612383419 -91.7507604838613 -37.04501332714814 80.07822089803801
 -46.11646178569459 94.0362963141032 -0.08598187809805499 -12.150333893823738 -37.045013327149434 80.07822089802838 -32.527518763968 -53.66124711453746
95.27536231884058 -23.842321549370023 -92.08304192982642 -36.83345903390191 62.54389946693136 -0.10508161799332569 -10.223815366083958 -45.6318022217136 92.46472776158252
 -36.83345903389194 62.543899466939 -35.78468590700537 -108.29166112384158 -46.29397881695829 83.9780537804371 -0.08747611965524704 -12.81993742334583
 -0.10508161799332373 -10.223815366083958 -46.293978816958735 83.97805378039693 -23.785346403222576 -92.62278683084482 -36.59071913941896 80.15685346981955
 -45.63180222171245 92.46472776157438 -0.08747611965524704 -12.819937423345834 -36.59071913941895 80.15685346983085 -31.987626271331358 -54.312765136490036
100.28985507246377 -23.401993088839077 -92.89235209777185 -36.40652317038108 61.6968716273825 -0.10839556407770028 -10.753356862229221 -45.168674701174766 90.96600980335948
 -36.40652317037984 61.69687162737983 -35.232711194471534 -111.9121929351299 -45.85861734359119 82.02362653301584 -0.08898217951934553 -13.489764435055841
 -0.10839556407770809 -10.753356862229223 -45.85861734358993 82.02362653297983 -23.342423250780215 -93.4630645280742 -36.158883025089324 80.20958890906351
 -45.16867470116476 90.96600980336848 -0.08898217951935528 -13.48976443505584 -36.15888302508849 80.2095889090704 -31.466678339159564 -54.89730831946116
105.30434782608694 -22.984584397282926 -93.67438576931687 -35.99988034238799 60.82647974520457 -0.11179857213169273 -11.282585250193089 -44.72510427672081 89.53020050132463
 -35.99988034238822 60.826479745214286 -34.68970429924136 -115.35968534059226 -45.4436465095383 80.13910201653712 -0.09050444801925511 -14.159833245544597
 -0.11179857213170151 -11.282585250193089 -45.4436465095376 80.13910201647523 -22.922408574768237 -94.27579777414809 -35.74742416073989 80.23975619468496
 -44.72510427672903 89.53020050142307 -0.09050444801925608 -14.159833245544597 -35.74742416074932 80.23975619471422 -30.963242438468143 -55.42588785507886
110.31884057971014 -22.58802885491835 -94.43269768365688 -35.611735940551675 59.93548350585305 -0.11529160345153334 -11.811493665263317 -44.29935922472069 88.14900541207163
 -35.611735940551846 59.93548350585567 -34.15602883958327 -118.64683177656347 -45.04736192013759 78.31611705454225 -0.0920469964337679 -14.830161459032215
 -0.11529160345153237 -11.811493665263317 -45.04736192013606 78.31611705447771 -22.523235403406424 -95.06444667108404 -35.354538716314735 80.25013937308663
 -44.29935922472236 88.1490054120997 -0.09204699643377082 -14.830161459032215 -35.354538716316036 80.25013937309846 -30.47603525091377 -55.907722720223234
115.33333333333333 -22.21053349553335 -95.17024939184356 -35.24052329371039 59.026201156537866 -0.11887522719198491 -12.34007515632952 -43.88991489838607 86.81544814637064
 -35.240523293709536 59.0262011565192 -33.63193325907832 -121.78536270404497 -44.66825763837853 76.54765702911861 -0.09361364704312806 -15.500765964250066
 -0.11887522719198589 -12.340075156329522 -44.668257638380425 76.54765702917415 -22.14310980526374 -95.83188438916844 -34.97865292844105 80.24308655058219
 -43.88991489838547 86.81544814641589 -0.09361364704310662 -15.50076596425007 -34.978652928440404 80.24308655060086 -30.003906630018115 -56.350568685588414
120.34782608695652 -21.850532927942687 -95.88952905641439 -34.88486678617719 58.10059440109037 -0.12254967606719241 -12.86832272510332 -43.49542378055904 85.52361711473088
 -34.88486678618689 58.10059440107794 -33.11757014731779 -124.7860980793894 -44.30499796207936 74.8277975333569 -0.09520802604419121 -16.17166294505841
 -0.12254967606718166 -12.86832272510332 -44.30499796206857 74.82779753336771 -21.780464990558166 -96.58051612259486 -34.618385669749884 80.22059352222367
 -43.495423780559776 85.52361711477873 -0.09520802604420195 -16.171662945058408 -34.618385669750744 80.22059352224221 -29.545824789538205 -56.76097907162335
125.3623188405797 -21.506652547303332 -96.59264331888086 -34.54355210164175 57.16033447079535 -0.12631489003213403 -13.39622937238504 -43.11469054769792 84.26846900923424
 -34.543552101642945 57.16033447080264 -32.613013021463914 -127.65900453687054 -43.956393800935246 73.15150344894444 -0.09683360424577314 -16.842867897739414
 -0.12631489003214383 -13.39622937238504 -43.956393800944554 73.15150344890537 -21.43392465387044 -97.31237020180804 -34.272518323656556 80.18436868532527
 -43.114690547688966 84.26846900932385 -0.09683360424577314 -16.84286789773941 -34.27251832364658 80.18436868536482 -29.10086286409932 -57.14451276496596
130.37681159420288 -21.17767887463907 -97.28138853075521 -34.21550200142727 56.20685406237084 -0.13017055112800086 -13.923788147010825 -42.74665119046978 83.0456749826211
 -34.215502001426984 56.206854062392146 -32.11827070859519 -130.4132542523991 -43.621382811994486 71.51447133954032 -0.09849372867223773 -17.514395651142703
 -0.13017055112800577 -13.923788147010828 -43.62138281199456 71.51447133949243 -21.102273413392023 -98.02916865478853 -33.93997033415304 80.13588402432835
 -42.74665119045913 83.04567498265098 -0.0984937286722348 -17.514395651142696 -33.93997033415212 80.13588402434088 -28.668186857468246 -57.505901270026726
135.3913043478261 -20.86253542706335 -97.95730657049049 -33.899756439130776 55.241388505828084 -0.13411611163067944 -14.450992195465124 -42.39035541972977 81.85149922400913
 -33.89975643913085 55.24138850582783 -31.63329955011315 -133.0572834772261 -43.299012605602414 69.91300478493672 -0.1001916471977447 -18.18626038861891
 -0.13411611163067746 -14.450992195465119 -43.29901260561335 69.91300478495086 -20.784432760158836 -98.73238241435429 -33.61977920051987 80.07641563776748
 -42.3903554197281 81.85149922399887 -0.10019164719764716 -18.186260388618905 -33.61977920051938 80.07641563776724 -28.24704491826976 -57.84918375405073
140.40579710144928 -20.560262925156994 -98.62172903306204 -33.595456105738336 54.26500857925587 -0.1381508170845368 -14.977834812085462 -42.044951737138156 80.68270222446968
 -33.59545610573832 54.26500857928407 -31.158013681830795 -135.59884944206254 -42.98842646359165 68.3439148969757 -0.10193052784553354 -18.858475672257473
 -0.13815081708453777 -14.97783481208547 -42.988426463591566 68.3439148968861 -20.479441328967205 -99.42327492595177 -33.31108397722028 80.00707633152115
 -42.04495173714814 80.68270222447028 -0.10193052784552183 -18.858475672257473 -33.31108397722996 80.0070763315219 -27.836757843203415 -58.177816942915825
145.42028985507244 -20.270002936522076 -99.27581256328769 -33.30182872113365 53.27864673741706 -0.14227372552753761 -15.504309490034121 -41.70967468320537 79.53646285293026
 -33.30182872113366 53.278646737422065 -30.692293648105966 -138.04508482732575 -42.6888511259215 66.80444012425062 -0.10371347418253804 -19.531054470286627
 -0.14227372552753761 -15.504309490034114 -42.688851125920834 66.80444012423219 -20.18643859047411 -100.1029369026677 -33.013111555002105 79.92884209922387
 -41.70967468320634 79.5364628529037 -0.10371347418253804 -19.531054470286627 -33.01311155500326 79.92884209921452 -27.436710691991635 -58.494765156129056
150.43478260869566 -19.990984268793454 -99.92056737190893 -33.018177554725796 52.28311810409527 -0.14648372403590953 -16.03040997290556 -41.3838338956457 78.41031474189404
 -33.018177554725796 52.28311810407471 -30.23599359715241 -140.4025493040455 -42.39958630501272 65.29218085100494 -0.10554353810449896 -20.204009187545253
 -0.14648372403591048 -16.030409972905566 -42.39958630501454 65.29218085109505 -19.90465127542472 -100.77231426461081 -32.72516516365927 79.84257378993924
 -41.3838338956456 78.41031474186128 -0.10554353810450481 -20.204009187545246 -32.72516516365912 79.84257378993775 -27.04634539924499 -58.802574586249314
155.44927536231882 -19.722511582371688 -100.556880436197 -32.74387177862662 51.27913733405287 -0.15077954349466233 -16.55613030539084 -41.06680471216279 77.30209361888713
 -32.743871778626605 51.27913733405178 -29.788947281901738 -142.67727784519917 -42.11999567279791 63.80504541952346 -0.10742373106505222 -20.877351696696916
 -0.15077954349465938 -16.556130305390845 -42.11999567279718 63.80504541949943 -19.633381999161088 -101.43223078860599 -32.44661466739767 79.74903489321629
 -41.06680471216231 77.3020936188858 -0.10742373106495459 -20.87735169669691 -32.446614667397796 79.74903489322655 -26.6651542774693 -59.10343501031584
160.463768115942 -19.463955808233408 -101.18553449718382 -32.4783383386119 50.2673322894401 -0.1551597721773028 -17.081464880826246 -40.758020120715784 76.20989319388583
 -32.47833833861195 50.26733228943076 -29.35097306013065 -144.87482562441716 -41.84949912549415 62.34120513765401 -0.1093570343867964 -21.551093366864627
 -0.15515977217730081 -17.081464880826246 -41.84949912549377 62.34120513763759 -19.37199967284548 -102.08340661988241 -32.17688832518217 79.64890613624645
 -40.75802012072482 76.20989319387574 -0.10935703438678665 -21.551093366864627 -32.176888325182055 79.64890613624839 -26.292674316956823 -59.399231395799596
165.47826086956522 -19.214746041383574 -101.80722368831141 -32.22105508094714 49.248255326662395 -0.15962286836461673 -17.606408483064325 -40.45696389340489 75.13202799782174
 -32.22105508094695 49.24825532666149 -28.921878052850847 -147.0003094282027 -41.58756616240379 60.899056568238734 -0.1113464088245262 -22.225245085901395
 -0.15962286836461673 -17.606408483064317 -41.58756616240226 60.899056568217375 -19.119931376956586 -102.72647351650994 -31.915465765638686 79.54279745978012
 -40.45696389341569 75.13202799783116 -0.11134640882453013 -22.2252450859014 -31.915465765638594 79.54279745979156 -25.928482196710632 -59.69158729044331
170.49275362318838 -18.97436264536185 -102.42256644321338 -31.971544910936203 48.222392814543134 -0.16416717195894254 -18.130956321635956 -40.1631647452148 74.06700209877515
 -31.9715449109369 48.22239281454272 -28.50146158919141 -149.05844561355178 -41.33371022442239 59.47718990074 -0.11339480318827991 -22.89981727469119
 -0.1641671719589435 -18.13095632163595 -41.33371022443387 59.47718990072584 -18.87665544002733 -103.3619874875262 -31.66187197957064 79.43125787062604
 -40.16316474521534 74.06700209876638 -0.11339480318827892 -22.899817274691184 -31.661871979570467 79.43125787062718 -25.572189925236092 -59.98190144978097
175.5072463768116 -18.74233135450693 -103.03211619997343 -31.72937079273039 47.19017331148528 -0.1687909149532461 -18.655104060223003 -39.876191356231494 73.01348289087458
 -31.72937079272056 47.19017331149503 -28.089518041944427 -151.0535847494386 -41.08748384172405 58.07436248757617 -0.11550516172243955 -23.57481989348828
 -0.16879091495324514 -18.655104060222993 -41.08748384172226 58.074362487557174 -18.641695516371556 -103.99043932812724 -31.41567216883765 79.31478361226279
 -39.876191356231814 73.01348289087422 -0.11550516172244052 -23.574819893488282 -31.41567216883836 79.314783612263 -25.223441032551115 -60.271378842557695
180.52173913043475 -18.518218202632838 -103.63637032450032 -31.494131433998742 46.151974663905456 -0.17349223066819283 -19.17884784017256 -39.5956481012087 71.97027924217319
 -31.494131433997875 46.15197466390626 -27.68583914252893 -152.9897431588199 -40.848474448574194 56.68947675490632 -0.11768043004320557 -24.250262442529753
 -0.17349223066819183 -19.178847840172562 -40.84847444858535 56.68947675490133 -18.414615496136268 -104.61226344393259 -31.176467314883975 79.19382502622021
 -39.59564810119958 71.97027924215556 -0.11768043004320557 -24.250262442529753 -31.176467314874113 79.19382502621119 -24.881907239530555 -60.561056956699794
185.53623188405794 -18.30162514070076 -104.23577759650232 -31.265457533136882 45.10813017549445 -0.17826916180027363 -19.702184300688955 -39.32117134950627 70.93632330421649
 -31.2654575331371 45.10813017549465 -27.290215854123318 -154.8706316183499 -40.61630074258959 55.32156176170473 -0.11992355963519095 -24.926153959531653
 -0.1782691618002756 -19.70218430068896 -40.61630074259098 55.321561761716936 -18.195015111496758 -105.22784527190173 -30.943890349702713 79.0687923946716
 -39.321171349495565 70.9363233041862 -0.11992355963519095 -24.926153959531653 -30.943890349702336 79.06879239466004 -24.54728553712122 -60.85182817209438
190.55072463768116 -18.09218623324869 -104.83074453431546 -31.043008495290685 44.058933943619785 -0.1831196674364738 -20.22511059768211 -39.05242622588283 69.91065531959177
 -31.04300849529061 44.05893394361078 -26.902439873496885 -156.6996814765594 -40.390609489503184 53.96975774620448 -0.12223751108635064 -25.60250301631445
 -0.18311966743647282 -20.225110597682114 -40.39060948950254 53.96975774619298 -17.982526127831257 -105.83752754702807 -30.71760283043251 78.94006097509711
 -39.05242622588229 69.9106553195787 -0.12223751108635064 -25.60250301631445 -30.717602830432106 78.94006097508651 -24.21929561698594 -61.144458845195444
195.56521739130432 -17.889564344448715 -105.42164077524535 -30.826469546297062 43.004645443270284 -0.1880416292493834 -20.747624422158005 -38.789103750912076 68.8924108357695
 -30.826469546297133 43.00464544325918 -26.522304824565317 -158.48006843319362 -40.17107269879305 52.633303086307265 -0.12462525632809855 -26.27931771616664
 -0.1880416292493834 -20.747624422158005 -40.17107269879161 52.63330308629378 -17.7768090284265 -106.44161561490317 -30.497292035360758 78.80797537344576
 -38.789103750912055 68.89241083578139 -0.12462525632809952 -26.279317716166645 -30.49729203537073 78.80797537344358 -23.897677604780615 -61.43960564578879
200.57971014492753 -17.693448241004184 -106.0088036821722 -30.615549188863053 41.94549344163989 -0.19303285708029774 -21.269724018801465 -38.530918301959545 67.88080983582925
 -30.61554918886284 41.94549344164861 -26.14960719776265 -160.21473419420028 -39.95738511418742 51.31152320404497 -0.12708978014850938 -26.95660569258542
 -0.19303285708029774 -21.269724018801465 -39.95738511419913 51.31152320402165 -17.57755011778943 -107.04038195513199 -30.282668414928192 78.67285335841326
 -38.53091830196011 67.88080983579088 -0.12708978014850938 -26.95660569258542 -30.28266841492909 78.672853358404 -23.58219005526973 -61.73782959468507
205.59420289855072 -17.503550051429794 -106.59254230788623 -30.409976955798612 40.88167932959807 -0.19809109408937625 -21.791408204953548 -38.2776053516869 66.87514740309432
 -30.409976955799394 40.881679329608815 -25.78414708110797 -161.90640619502773 -39.74926197655962 50.00382104454159 -0.1296340812044145 -27.634374109518152
 -0.19809109408937725 -21.791408204953544 -39.7492619765592 50.00382104450567 -17.38445898146606 -107.63407004821804 -30.073463343726047 78.53498919282964
 -38.27760535167703 66.87514740308265 -0.12963408120441253 -27.63437410951815 -30.07346334372615 78.53498919282787 -23.272608175674844 -62.03960817111987
210.60869565217388 -17.31960303147945 -107.17314082321734 -30.209501422146307 39.81337995435375 -0.20321402159878293 -22.31267638975199 -38.02891945015076 65.87478563148257
 -30.20950142213571 39.81337995435424 -25.425728720939446 -163.5576155615239 -39.54643702515082 48.70966884536733 -0.1322611726912974 -28.312629662838216
 -0.20321402159878194 -22.312676389751985 -39.5464370251607 48.70966884537879 -17.197266251018988 -108.2228976948033 -29.869427130222086 78.3946565436613
 -38.02891945015006 65.87478563146222 -0.13226117269130327 -28.31262966283822 -29.869427130222206 78.39465654365142 -22.96872224868997 -62.34534579153217
215.6231884057971 -17.141359593229502 -107.7508614926373 -30.013888443095105 38.74075003102695 -0.20839926372064516 -22.8335285934309 -37.78463242281327 64.87914656300492
 -30.013888443104882 38.74075003102681 -25.074160943136185 -165.1707134633549 -39.34866070875223 47.4286009783714 -0.1349740827820389 -28.991378582872205
 -0.2083992637206422 -22.83352859343089 -39.348660708754586 47.42860097834428 -17.015721631304057 -108.80705987568498 -29.67032724844305 78.25211102278165
 -37.78463242281343 64.87914656300615 -0.13497408278193998 -28.991378582872212 -29.670327248443044 78.25211102278199 -22.670336230934446 -62.655382906631225
220.63768115942028 -16.96858956193761 -108.32594726611299 -29.822919589246048 37.66392420058224 -0.21364439182763995 -23.353965466539332 -37.54453175966506 63.88770598936001
 -29.822919589236946 37.66392420058231 -24.72925746054718 -166.74788600352758 -39.155698581493624 46.16020769528463 -0.13777585489811872 -29.670626637666736
 -0.21364439182763995 -23.35396546653933 -39.15569858149159 46.16020769529851 -16.83959215401633 -109.38673122441784 -29.475946762105174 78.10759240552915
 -37.54453175966503 63.88770598931098 -0.1377758548981119 -29.670626637666743 -29.475946762105277 78.10759240551042 -22.377266505509652 -62.97000391997161
225.65217391304347 -16.80107863039211 -108.89862404482267 -29.636390753719457 36.58301879043305 -0.21894692890392425 -23.873988309054067 -37.30841917387829 62.899987987948506
 -29.63639075371865 36.58301879043288 -24.390837087067922 -168.29116777404735 -38.96732986143793 44.90412964224055 -0.14066954786008798 -30.350379136777903
 -0.21894692890392425 -23.87398830905407 -38.96732986143784 44.90412964224234 -16.66866062728993 -109.96206817205724 -29.286082916470264 77.96132656828055
 -37.30841917387831 62.89998798794519 -0.14066954786008895 -30.350379136777903 -29.286082916470416 77.96132656827947 -22.08934077042131 -63.28944409644846
230.66666666666666 -16.638626984840286 -109.46910266740072 -29.454110909940322 35.49813332396782 -0.22430435380537544 -24.393599089365626 -37.07610931029712 61.91556009071773
 -29.454110909940525 35.49813332396838 -24.05872387572913 -169.80245420069994 -38.7833461320281 43.6600530333518 -0.14365823594016403 -31.03064093555473
 -0.22430435380537544 -24.39359908936563 -38.78334613202812 43.66005303335049 -16.50272425553455 -110.53321081219954 -29.10054587674791 77.81352718259653
 -37.07610931029711 61.91556009072712 -0.14365823594016008 -31.03064093555473 -29.10054587674736 77.81352718259606 -21.806397046471467 -63.61389560140254
235.68115942028982 -16.48104808053936 -110.0375806576674 -29.275901000733292 34.40935181628581 -0.22971410544761997 -24.91280046305231 -36.847428585976104 60.934028998532774
 -29.275901000733242 34.40935181627556 -23.73274719473459 -171.283512787489 -38.60355016881062 42.427705391919396 -0.14674500884176844 -31.711416439804538
 -0.229714105447622 -24.91280046305232 -38.60355016881065 42.427705391931056 -16.341593407791798 -111.10028452716398 -28.919157595070658 77.66439719761027
 -36.847428585976104 60.93402899855429 -0.14674500884177333 -31.711416439804538 -28.919157595080875 77.66439719761811 -21.528282790435345 -63.943512788968405
240.69565217391303 -16.32816754812324 -110.60424376700138 -29.101592942911637 33.316743886099715 -0.2351735869403589 -25.431595791595246 -36.62221414730799 59.955036770647595
 -29.101592942911655 33.31674388610863 -23.41274175329527 -172.7359933648241 -38.42775487581668 41.20685178138793 -0.14993297162206648 -32.39270961083639
 -0.23517358694035395 -25.43159579159524 -38.42775487581589 41.206851781353976 -16.185090515838212 -111.6634014085855 -28.741750790425456 77.51413013968615
 -36.62221414730799 59.95503677061891 -0.1499329716219664 -32.39270961083639 -28.74175079042609 77.51413013967748 -21.254854101085208 -64.2784168400623
245.71014492753622 -16.17982221478409 -111.16926734009613 -28.93102873320281 32.220365708190876 -0.24068016968296638 -25.94998916105477 -36.40031292978471 58.9782574262342
 -28.93102873320281 32.22036570820156 -23.098547586873636 -174.16143743431473 -38.25578231800067 39.997291458965634 -0.15322524457477926 -33.07452397107337
 -0.24068016968306652 -25.94998916105477 -38.25578231800099 39.99729145896661 -16.033049086102913 -112.22266150068432 -28.568168028048273 77.36291125309486
 -36.400312929784725 58.97825742623206 -0.15322524457477438 -33.074523971073354 -28.56816802804815 77.36291125309394 -20.985975006993375 -64.61869983558324
250.7246376811594 -16.03585922640091 -111.73281752876805 -28.764059643537397 31.120260825522173 -0.24623119743813765 -26.46798540077678 -36.18158080823753 58.00339390561338
 -28.764059643537397 31.120260825522067 -22.790010010040515 -175.56128669602973 -38.08746283756965 38.79885489408364 -0.1566249630932713 -33.75686261003795
 -0.24623119743814262 -26.467985400776765 -38.087462837569376 38.798854894072306 -15.885312811568134 -112.77815388956083 -28.39826088677251 77.2109185033825
 -36.18158080823752 58.00339390562362 -0.1566249630932713 -33.756862610037935 -28.39826088677254 77.21091850339225 -20.72151682664568 -64.96442833820512
255.7391304347826 -15.89613525883101 -112.29505237425371 -28.60054549535966 30.016460837454424 -0.2518239903985567 -26.985590102344293 -35.96588182697485 57.03017534346095
 -28.600545495359665 30.01646083746429 -22.486979543698872 -176.93689083573184 -37.922634243729895 37.61140110069206 -0.16013527753047446 -34.43972819097214
 -0.2518239903985597 -26.9855901023443 -37.92263424372952 37.611401100681604 -15.741734771879575 -113.32995765909928 -28.23188920395143 77.05832346071749
 -35.96588182697488 57.03017534347045 -0.16013527753047252 -34.43972819097213 -28.231889203951425 77.05832346072762 -20.4613575922528 -65.3156465457166
260.75362318840575 -15.760515808077011 -112.85612277536754 -28.440354004122376 28.90898597689871 -0.2574558492664678 -27.502809638691822 -35.75308750050618 56.05835461469425
 -28.44035400412238 28.908985976899142 -22.189311822227292 -178.28951464244454 -37.76114106664673 36.43481523981111 -0.163759353080193 -35.12312295813077
 -0.25745584926646875 -27.50280963869181 -37.76114106665873 36.4348152397948 -15.602176711254627 -113.87814272953122 -28.06892038923722 76.90529207940229
 -35.753087500506076 56.05835461471461 -0.16375935308019396 -35.12312295813077 -28.068920389237185 76.90529207941171 -20.205381530107744 -65.67237907008786
265.76811594202894 -15.628874550536061 -113.416173358514 -28.283360186201442 27.797845587179847 -0.2631240593639444 -28.019651183666447 -35.54307617673854 55.08770611747549
 -28.283360186201442 27.797845587179733 -21.896867485275116 -179.62034451989976 -37.60283386770776 35.2690064525079 -0.16750036970017634 -35.807048744744186
 -0.2631240593639404 -28.019651183666454 -37.60283386772011 35.26900645246362 -15.466508385388103 -114.42277059381874 -27.90922879945855 76.75198538656115
 -35.543076176738914 55.08770611747584 -0.16750036970017634 -35.807048744744186 -27.909228799458575 76.75198538657199 -19.953478590875285 -66.03463338948272
270.7826086956522 -15.501092765651357 -113.97534326158478 -28.129445821688442 26.683038507983262 -0.26882589479558894 -28.536122732093386 -35.33573245557084 54.11802376251142
 -28.129445821688442 26.683038507983305 -21.609512058180105 179.06950555113104 -37.44756859881642 34.113905890321625 -0.17136152210429384 -36.491506981811504
 -0.2688258947956904 -28.536122732093386 -37.44756859881668 34.113905890333456 -15.334606969498388 -114.96389496366903 -27.752695167632385 76.59856009170639
 -35.33573245556077 54.11802376252123 -0.1713615221042909 -36.491506981811504 -27.752695167632826 76.59856009170412 -19.70554402416836 -66.40240201356451
275.7971014492753 -15.37705881433179 -114.53376684372078 -27.97849896731295 25.564553377743103 -0.2745586226883576 -29.052233120463566 -35.13094665667142 53.14911914256322
 -27.97849896731295 25.564553377743103 -21.327115824016133 177.77898854655263 -37.29520600480048 32.96946491269529 -0.1753460198515822 -37.176498707736634
 -0.2745586226883626 -29.052233120463548 -37.29520600481315 32.96946491267831 -15.206356520796867 -115.5015623360452 -27.599206080231728 76.44516912717854
 -35.130946656671384 53.14911914256352 -0.1753460198515822 -37.176498707736634 -27.599206080231763 76.44516912718859 -19.461477992584072 -66.7756643977357
280.81159420289856 -15.25666766731365 -115.09157432973846 -27.830413514524896 24.442368859181247 -0.28031950753697293 -29.567992048330346 -34.928614330990754 52.180819857941174
 -27.830413514524896 24.442368859181247 -21.049553690179433 176.50711938307867 -37.14561106344804 31.835653424948813 -0.17945708756264195 -37.862024578886675
 -0.28031950753697293 -29.567992048330346 -37.145611063448015 31.835653424935245 -15.081647489413875 -116.03581248885354 -27.44865349734342 76.29196212814963
 -34.92861433098084 52.18081985794142 -0.17945708756264098 -37.86202457888667 -27.448653497343972 76.29196212815869 -19.22118522061313 -67.15438863683418
285.82608695652175 -15.139820478579631 -115.64889239839864 -27.68508878844381 23.316453793536756 -0.2861058156805867 -30.083410100574294 -34.72863581100552 51.21296797822429
 -27.68508878844381 23.31645379353678 -20.776705051602093 175.25297030957262 -36.9986524580547 30.712458334119663 -0.183697965297263 -38.548084881058294
 -0.2861058156805876 -30.083410100574294 -36.9986524580547 30.712458334119418 -14.960376272600426 -116.56667891393984 -27.300934310814373 76.13908585943683
 -34.728635811005205 51.21296797821421 -0.183697965297263 -38.548084881058294 -27.30093431081443 76.13908585943751 -18.984574674864334 -67.53853296524905
290.8405797101449 -15.02642419931545 -116.20584472118675 -27.542429183905483 22.186767288131804 -0.2919148199475779 -30.59849877061559 -34.530915795609076 50.24541862091222
 -27.542429183905483 22.186767288131747 -20.508453652451884 174.01566666648378 -36.85420207843505 29.599882101100807 -0.18807190913183963 -39.23467954203986
 -0.2919148199475799 -30.598498770615596 -36.85420207843472 29.59988210110099 -14.842444807640288 -117.0941891937622 -27.155949936275093 75.98668459550112
 -34.53091579560915 50.24541862091244 -0.18807190913183963 -39.23467954203986 -27.1559499362751 75.98668459550107 -18.751559271969068 -67.92804708683433
295.85507246376807 -14.916391228690314 -116.7625524575163 -27.40234383534488 21.053258741342415 -0.2977438045017834 -31.113270484570695 -34.335362965519685 49.278038631043856
 -27.40234383534488 21.053258741342614 -20.244687447891838 172.79438297990197 -36.712134545943485 28.497941370219987 -0.19258219197272652 -39.92180814500777
 -0.2977438045017824 -31.11327048457071 -36.71213454595708 28.497941370214548 -14.727760199474245 -117.61836532770694 -27.01360593510955 75.83490045872777
 -34.335362965519664 49.27803863102396 -0.19258219197272652 -39.92180814500777 -27.013605935109616 75.83490045872884 -18.522055611431156 -68.32287335489225
300.8695652173913 -14.80963909813767 -117.31913471210646 -27.264746317626646 19.91586780810916 -0.3035900699256898 -31.627738626569887 -34.14188962589474 48.31070534562093
 -27.264746317626646 19.915867808099243 -19.985298467183913 171.58833935737783 -36.57232675902855 27.40666565795886 -0.19723210465067076 -40.60946994298144
 -0.3035900699256908 -31.62773862656987 -36.57232675902813 27.40666565795572 -14.616234379443334 -118.13922401254987 -26.873811662840204 75.68387371984637
 -34.14188962589474 48.31070534562048 -0.19723210465067076 -40.60946994298144 -26.87381166284023 75.68387371984666 -18.295983730677698 -68.72294782048407
305.88405797101444 -14.706090186320024 -117.87570895833005 -27.129554375335786 18.77452430834566 -0.3094509385798113 -32.14191756519453 -33.95041137306261 47.343305428932304
 -27.129554375335783 18.77452430834243 -19.730182679225276 170.3967981579167 -36.43465745558198 26.32609608279509 -0.20202495733729475 -41.29766387417822
 -0.30945093857990824 -32.14191756519456 -36.4346574555955 26.32609608278893 -14.507783792037792 -118.6567768812046 -26.736479940924305 75.53374306373708
 -33.95041137306261 47.34330542893236 -0.2020249573372957 -41.29766387417821 -26.736479940924216 75.53374306372628 -18.073266879931037 -69.1282011645113
310.89855072463763 -14.605671462204414 -118.43239143182872 -26.996689678338086 17.629148079973262 -0.3153237602787759 -32.655822681083016 -33.76084678248646 46.37573376405158
 -26.996689678338086 17.629148079973366 -19.479239861500734 169.21906090938108 -36.29900678899334 25.25628411785686 -0.20696408133159444 -41.98638857818946
 -0.3153237602788739 -32.65582268108301 -36.29900678899333 25.256284117857035 -14.402329106877524 -119.17103070345709 -26.601526748974962 75.38464582240113
 -33.76084678248646 46.37573376405161 -0.20696408133159247 -41.986388578189455 -26.60152674897517 75.38464582241151 -17.85383131498324 -69.53855952774074
315.9130434782609 -14.508314254047649 -118.98929749640791 -26.86607760180884 16.479648777219534 -0.32120591832890893 -33.16947039585249 -33.57311711581918 45.40789238768253
 -26.866077601808836 16.479648777213484 -19.232373473264502 168.0544654509708 -36.16525591463762 24.19729034756325 -0.21205283126369098 -42.67564241301475
 -0.3212059183289109 -33.16947039585249 -36.16525591465119 24.197290347556265 -14.299794953345993 -119.68198755068887 -26.468870934959 75.23671817659333
 -33.57311711581918 45.40789238768242 -0.21205283126369098 -42.67564241301474 -26.468870934948356 75.23671817659482 -17.63760610593353 -69.95394525082087
320.927536231884 -14.413954042646699 -119.54654198557871 -26.737647029167285 15.325925614497873 -0.32709483596621564 -33.68287820228792 -33.38714604472142 44.43968945463418
 -26.737647029167277 15.325925614501806 -18.98949053369047 166.9023832785479 -36.03328658444213 23.149183207252403 -0.2172945877667296 -43.36542347261311
 -0.3270948359662136 -33.682878202287924 -36.033286584442045 23.149183207240323 -14.200109675669143 -120.1896449274082 -26.338433941013815 75.09009532610764
 -33.387146044721426 44.439689454644146 -0.2172945877667296 -43.36542347261311 -26.33843394101366 75.09009532610696 -17.42452296022409 -70.37427753555114
325.9420289855072 -14.322530276888074 -120.10423952041559 -26.611330176753967 14.167867054620517 -0.33298798325765 -34.19606469595887 -33.20285938987234 43.47103821953526
 -26.611330176753963 14.167867054619574 -18.750501505596908 165.76221707651234 -35.90298074658278 22.11203768556256 -0.2226927606726341 -44.05572960517098
 -0.332987983257648 -34.19606469595887 -35.90298074658269 22.112037685561933 -14.103205106410204 -120.69399587126058 -26.21013954288238 74.94491162919499
 -33.20285938987234 43.471038219535465 -0.2226927606726341 -44.05572960517098 -26.210139542882406 74.944911629195 -17.21451605856134 -70.79947303704529
330.95652173913044 -14.233986210603454 -120.66250480733028 -26.48706243914185 13.00535044261299 -0.338882884504845 -34.70904960826847 -33.020184874010866 42.501856022778284
 -26.48706243914185 13.005350442612956 -18.515320185267303 164.63339841337682 -35.7742201494586 21.085933963127783 -0.22825079278772598 -44.746558431639585
 -0.33888288450484394 -34.70904960826849 -35.77422014945905 21.085933963141677 -14.009016356382453 -121.19502902227086 -26.08391360095709 74.80130070965937
 -33.02018487401087 42.50185602276824 -0.22825079278772795 -44.74655843163959 -26.08391360095711 74.80130070966001 -17.007521902383584 -71.22944639589316
335.9710144927536 -14.148268758841018 -121.22145290930949 -26.364782255036058 11.83824157623025 -0.34477712626194595 -35.22185384103436 -32.83905188642102 41.53206326957866
 -26.364782255036058 11.838241576232255 -18.283863599452932 163.5153856006637 -35.646885945845106 20.070955971690612 -0.23397216432661402 -45.437907364466206
 -0.344777126261944 -35.22185384103435 -35.64688594584435 20.070955971663796 -13.917481619513065 -121.69272866402255 -25.959683821376668 74.6593955317862
 -32.839051886421025 41.53206326958858 -0.23397216432651494 -45.4379073644662 -25.959683821376668 74.65939553179618 -16.803479171862904 -71.66411071805355
340.98550724637676 -14.065328374475728 -121.7811995117705 -26.24443099215389 10.666394232170266 -0.3506683659211076 -35.73449950286514 -32.659391262199044 40.561582388124705
 -26.244430992153895 10.666394232168976 -18.056051907981118 162.4076616633802 -35.52085830191351 19.0671898269287 -0.23986039804213688 -46.12977362660151
 -0.3506683659211066 -35.73449950286513 -35.52085830191344 19.067189826928093 -13.828541990554061 -122.18707473454994 -25.837379525460467 74.51932843873631
 -32.65939126219904 40.56158238813473 -0.23986039804213688 -46.12977362660151 -25.837379525460463 74.51932843874637 -16.60232859277633 -72.10337801072025
346.0 -13.985118939854168 -122.34186113476143 -26.125952853823424 9.48964959991624 -0.35655434124762436 -36.247009946772764 -32.48113506606342 39.59033675992723
 -26.125952853823424 9.48964959991624 -17.831808317518288 161.30973249470378 -35.39601599810074 18.07472215369264 -0.2459190652119729 -46.82215426961195
 -0.35655434124752283 -36.24700994677276 -35.39601599810078 18.07472215369246 -13.742141295136959 -122.67804281343841 -25.716931425973364 74.3812311584071
 -32.48113506606342 39.59033675992725 -0.2459190652119729 -46.82215426961195 -25.716931425973335 74.38123115839636 -16.404012812928517 -72.54715957917465
