#   Hz   S  RI   R   50
!
0.000000e+00 4.662060e-03 0.000000e+00 6.464714e-04 0.000000e+00 9.948913e-01 0.000000e+00 -5.840200e-04 0.000000e+00 6.460729e-04 0.000000e+00 4.674840e-03 0.000000e+00 -5.852704e-04 0.000000e+00 9.948514e-01 0.000000e+00 9.948599e-01 0.000000e+00 -5.787892e-04 0.000000e+00 4.639582e-03 0.000000e+00 6.775615e-04 0.000000e+00 -5.798363e-04 0.000000e+00 9.948182e-01 0.000000e+00 6.763994e-04 0.000000e+00 4.646177e-03 0.000000e+00
3.500000e+09 4.679120e-03 -1.389926e-05 6.228251e-04 3.222323e-04 9.947969e-01 -8.516398e-03 -5.663671e-04 2.263539e-04 6.225720e-04 3.233102e-04 4.688204e-03 2.225095e-05 -5.677165e-04 2.232860e-04 9.947602e-01 -8.474361e-03 9.947720e-01 -8.427102e-03 -5.603215e-04 2.564218e-04 4.696316e-03 7.814104e-05 6.692983e-04 5.083691e-04 -5.614591e-04 2.526789e-04 9.947312e-01 -8.421125e-03 6.684127e-04 5.097377e-04 4.696989e-03 1.441859e-04
7.000000e+09 4.724920e-03 -4.852773e-05 5.587707e-04 6.698999e-04 9.945248e-01 -1.698940e-02 -5.171273e-04 4.389042e-04 5.589235e-04 6.719405e-04 4.723997e-03 2.779652e-05 -5.187626e-04 4.328123e-04 9.944972e-01 -1.690768e-02 9.945179e-01 -1.681570e-02 -5.087398e-04 4.986304e-04 4.858574e-03 1.245177e-04 6.466451e-04 1.024682e-03 -5.101357e-04 4.911961e-04 9.944798e-01 -1.680458e-02 6.465387e-04 1.027226e-03 4.842772e-03 2.614727e-04
1.050000e+10 4.785663e-03 -1.185735e-04 4.719122e-04 1.060626e-03 9.941034e-01 -2.538805e-02 -4.458069e-04 6.280730e-04 4.726530e-04 1.063433e-03 4.771201e-03 4.742528e-06 -4.478859e-04 6.190322e-04 9.940889e-01 -2.527065e-02 9.941227e-01 -2.513829e-02 -4.338123e-04 7.167535e-04 5.105995e-03 1.162910e-04 6.150632e-04 1.554456e-03 -4.356012e-04 7.057164e-04 9.940884e-01 -2.512344e-02 6.161094e-04 1.557847e-03 5.066467e-03 3.324242e-04
1.400000e+10 4.844450e-03 -2.300127e-04 3.836944e-04 1.500779e-03 9.935672e-01 -3.369939e-02 -3.639777e-04 7.903692e-04 3.851099e-04 1.504127e-03 4.816298e-03 -5.186504e-05 -3.666229e-04 7.784673e-04 9.935682e-01 -3.355093e-02 9.936169e-01 -3.338317e-02 -3.474321e-04 9.071708e-04 5.413650e-03 4.349058e-05 5.812014e-04 2.099713e-03 -3.497074e-04 8.926352e-04 9.935869e-01 -3.336620e-02 5.836160e-04 2.103568e-03 5.347172e-03 3.483656e-04
1.750000e+10 4.886153e-03 -3.812962e-04 3.130862e-04 1.987036e-03 9.929471e-01 -4.192594e-02 -2.818590e-04 9.275415e-04 3.151788e-04 1.990711e-03 4.847154e-03 -1.409814e-04 -2.851616e-04 9.128628e-04 9.929640e-01 -4.175077e-02 9.930279e-01 -4.155232e-02 -2.601055e-04 1.071645e-03 5.759249e-03 -9.274524e-05 5.509327e-04 2.659465e-03 -2.629243e-04 1.053713e-03 9.930018e-01 -4.153473e-02 5.547917e-04 2.663417e-03 5.666164e-03 3.099156e-04
2.100000e+10 4.899867e-03 -5.664476e-04 2.734085e-04 2.510420e-03 9.922651e-01 -5.007930e-02 -2.066015e-04 1.044391e-03 2.761208e-04 2.514246e-03 4.854973e-03 -2.580256e-04 -2.106308e-04 1.027007e-03 9.922973e-01 -4.988100e-02 9.923750e-01 -4.965572e-02 -1.791902e-04 1.215075e-03 6.126761e-03 -2.847547e-04 5.283694e-04 3.230970e-03 -1.825831e-04 1.193835e-03 9.923523e-01 -4.963871e-02 5.336496e-04 3.234714e-03 6.009928e-03 2.231561e-04
2.450000e+10 4.879090e-03 -7.780006e-04 2.721155e-04 3.060129e-03 9.915342e-01 -5.817409e-02 -1.421706e-04 1.146696e-03 2.753565e-04 3.063974e-03 4.834443e-03 -3.972159e-04 -1.469835e-04 1.126664e-03 9.915803e-01 -5.795526e-02 9.916697e-01 -5.770601e-02 -1.087745e-04 1.343366e-03 6.506680e-03 -5.226999e-04 5.157953e-04 3.810926e-03 -1.127567e-04 1.318890e-03 9.916495e-01 -5.769042e-02 5.224169e-04 3.814225e-03 6.370381e-03 9.600161e-05
2.800000e+10 4.820732e-03 -1.008855e-03 3.120966e-04 3.625958e-03 9.907600e-01 -6.622406e-02 -9.005203e-05 1.239905e-03 3.157618e-04 3.629736e-03 4.782945e-03 -5.530437e-04 -9.570057e-05 1.217265e-03 9.908183e-01 -6.598645e-02 9.909172e-01 -6.571510e-02 -5.040220e-05 1.462083e-03 6.894553e-03 -7.973141e-04 5.140717e-04 4.396221e-03 -5.498129e-05 1.434428e-03 9.908986e-01 -6.570144e-02 5.219310e-04 4.398909e-03 6.743639e-03 -6.409485e-05
3.150000e+10 4.723896e-03 -1.253085e-03 3.932754e-04 4.199367e-03 9.899437e-01 -7.424046e-02 -5.011826e-05 1.328550e-03 3.972596e-04 4.203026e-03 4.699588e-03 -7.209169e-04 -5.665455e-05 1.303332e-03 9.900126e-01 -7.398505e-02 9.901187e-01 -7.369270e-02 -3.962262e-06 1.575857e-03 7.289172e-03 -1.101102e-03 5.231343e-04 4.984267e-03 -9.144011e-06 1.545065e-03 9.901006e-01 -7.368118e-02 5.321254e-04 4.986232e-03 7.128517e-03 -2.511439e-04
3.500000e+10 4.588883e-03 -1.506090e-03 5.139158e-04 4.773681e-03 9.890839e-01 -8.223171e-02 -2.133755e-05 1.416145e-03 5.181206e-04 4.777196e-03 4.584421e-03 -8.972756e-04 -2.881641e-05 1.388370e-03 9.891618e-01 -8.195891e-02 9.892730e-01 -8.164603e-02 3.158341e-05 1.688271e-03 7.691101e-03 -1.428563e-03 5.424010e-04 5.573062e-03 2.579237e-05 1.654377e-03 9.892546e-01 -8.163663e-02 5.524272e-04 5.574236e-03 7.525290e-03 -4.608034e-04
3.850000e+10 4.416528e-03 -1.764429e-03 6.715044e-04 5.343888e-03 9.881780e-01 -9.020369e-02 -2.252741e-06 1.505289e-03 6.758416e-04 5.347254e-03 4.437905e-03 -1.079461e-03 -1.073298e-05 1.474972e-03 9.882638e-01 -8.991350e-02 9.883780e-01 -8.958010e-02 5.770835e-05 1.801972e-03 8.101688e-03 -1.775948e-03 5.710463e-04 6.161128e-03 5.129920e-05 1.765003e-03 9.883586e-01 -8.957267e-02 5.820261e-04 6.161473e-03 7.934879e-03 -6.901770e-04
4.200000e+10 4.207811e-03 -2.025565e-03 8.632760e-04 5.906308e-03 9.872233e-01 -9.816033e-02 8.732645e-06 1.597846e-03 8.676684e-04 5.909536e-03 4.260608e-03 -1.265510e-03 -8.121511e-07 1.564998e-03 9.873159e-01 -9.785246e-02 9.874315e-01 -9.749821e-02 7.602800e-05 1.918856e-03 8.522482e-03 -2.140884e-03 6.081660e-04 6.747410e-03 6.898936e-05 1.878833e-03 9.874103e-01 -9.749247e-02 6.200344e-04 6.746910e-03 8.358359e-03 -9.374950e-04
4.550000e+10 3.963653e-03 -2.287610e-03 1.086495e-03 6.458275e-03 9.862169e-01 -1.061041e-01 1.320020e-05 1.695120e-03 1.090877e-03 6.461386e-03 4.053043e-03 -1.453953e-03 2.523388e-06 1.659750e-03 9.863155e-01 -1.057780e-01 9.864312e-01 -1.054024e-01 8.814161e-05 2.040243e-03 8.954933e-03 -2.521998e-03 6.528658e-04 7.331173e-03 8.045972e-05 1.997187e-03 9.864077e-01 -1.053980e-01 6.655736e-04 7.329826e-03 8.796714e-03 -1.201805e-03
4.900000e+10 3.684829e-03 -2.549126e-03 1.338590e-03 6.997868e-03 9.851565e-01 -1.140364e-01 1.264292e-05 1.797996e-03 1.342905e-03 7.000890e-03 3.815605e-03 -1.643655e-03 7.626378e-07 1.760111e-03 9.852606e-01 -1.136915e-01 9.853751e-01 -1.132938e-01 9.555680e-05 2.167030e-03 9.400253e-03 -2.918619e-03 7.043032e-04 7.911924e-03 8.721591e-05 2.120957e-03 9.853487e-01 -1.132902e-01 7.178163e-04 7.909738e-03 9.250722e-03 -1.482719e-03
5.250000e+10 3.371947e-03 -2.808963e-03 1.617203e-03 7.523711e-03 9.840399e-01 -1.219580e-01 8.436421e-06 1.907052e-03 1.621404e-03 7.526675e-03 3.548553e-03 -1.833686e-03 -4.722376e-06 1.866662e-03 9.841491e-01 -1.215935e-01 9.842615e-01 -1.211729e-01 9.966031e-05 2.299796e-03 9.859375e-03 -3.330544e-03 7.617045e-04 8.489344e-03 9.064306e-05 2.250724e-03 9.842319e-01 -1.211698e-01 7.760019e-04 8.486332e-03 9.720928e-03 -1.780219e-03
5.600000e+10 3.025449e-03 -3.066154e-03 1.920194e-03 8.034821e-03 9.828655e-01 -1.298690e-01 1.833466e-06 2.022640e-03 1.924244e-03 8.037761e-03 3.252017e-03 -2.023241e-03 -1.268207e-05 1.979752e-03 9.829797e-01 -1.294842e-01 9.830892e-01 -1.290399e-01 1.017126e-04 2.438892e-03 1.033296e-02 -3.757876e-03 8.243676e-04 9.063244e-03 9.200050e-05 2.386837e-03 9.830560e-01 -1.290366e-01 8.394396e-04 9.059422e-03 1.020764e-02 -2.094519e-03
5.950000e+10 2.645639e-03 -3.319836e-03 2.245636e-03 8.530503e-03 9.816318e-01 -1.377695e-01 -6.030631e-06 2.144943e-03 2.249503e-03 8.533457e-03 2.926022e-03 -2.211572e-03 -2.198395e-05 2.099567e-03 9.817511e-01 -1.373635e-01 9.818570e-01 -1.368945e-01 1.028537e-04 2.584500e-03 1.082144e-02 -4.200902e-03 8.916591e-04 9.633533e-03 9.242743e-05 2.529477e-03 9.818200e-01 -1.368907e-01 9.075061e-04 9.628919e-03 1.071099e-02 -2.425974e-03
6.300000e+10 2.232710e-03 -3.569197e-03 2.591787e-03 9.010279e-03 9.803378e-01 -1.456590e-01 -1.412841e-05 2.274015e-03 2.595446e-03 9.013284e-03 2.570507e-03 -2.397954e-03 -3.160300e-05 2.226164e-03 9.804623e-01 -1.452311e-01 9.805643e-01 -1.447365e-01 1.041131e-04 2.736669e-03 1.132503e-02 -4.660020e-03 9.630087e-04 1.020019e-02 9.295295e-05 2.678695e-03 9.805232e-01 -1.447315e-01 9.796395e-04 1.019480e-02 1.123090e-02 -2.775006e-03
6.650000e+10 1.786766e-03 -3.813440e-03 2.957072e-03 9.473827e-03 9.789826e-01 -1.535372e-01 -2.152976e-05 2.409815e-03 2.960505e-03 9.476921e-03 2.185351e-03 -2.581655e-03 -4.061123e-05 2.359501e-03 9.791126e-01 -1.530866e-01 9.792103e-01 -1.525654e-01 1.064209e-04 2.895353e-03 1.184376e-02 -5.135681e-03 1.037903e-03 1.076325e-02 9.450699e-05 2.834443e-03 9.791651e-01 -1.525588e-01 1.055334e-03 1.075711e-02 1.176718e-02 -3.142067e-03
7.000000e+10 1.307852e-03 -4.051767e-03 3.340064e-03 9.920950e-03 9.775656e-01 -1.614035e-01 -2.739205e-05 2.552224e-03 3.343257e-03 9.924169e-03 1.770394e-03 -2.761919e-03 -4.816785e-05 2.499462e-03 9.777015e-01 -1.609294e-01 9.777947e-01 -1.603807e-01 1.106183e-04 3.060429e-03 1.237757e-02 -5.628357e-03 1.115880e-03 1.132280e-02 9.793058e-05 2.996598e-03 9.777454e-01 -1.603720e-01 1.134134e-03 1.131591e-02 1.231954e-02 -3.527607e-03
7.350000e+10 7.959701e-04 -4.283361e-03 3.739465e-03 1.035154e-02 9.760862e-01 -1.692574e-01 -3.095142e-05 2.701062e-03 3.742408e-03 1.035493e-02 1.325454e-03 -2.937964e-03 -5.351058e-05 2.645870e-03 9.762287e-01 -1.687591e-01 9.763172e-01 -1.681820e-01 1.174662e-04 3.231713e-03 1.292623e-02 -6.138514e-03 1.196525e-03 1.187895e-02 1.039848e-04 3.164977e-03 9.762637e-01 -1.681707e-01 1.215629e-03 1.187133e-02 1.288758e-02 -3.932060e-03
7.700000e+10 2.511025e-04 -4.507380e-03 4.154090e-03 1.076558e-02 9.745441e-01 -1.770984e-01 -3.151541e-05 2.856104e-03 4.156779e-03 1.076916e-02 8.503444e-04 -3.108972e-03 -5.594829e-05 2.798502e-03 9.746937e-01 -1.765751e-01 9.747776e-01 -1.759687e-01 1.276533e-04 3.408973e-03 1.348948e-02 -6.666604e-03 1.279463e-03 1.243184e-02 1.133587e-04 3.339348e-03 9.747199e-01 -1.759543e-01 1.299450e-03 1.242350e-02 1.347086e-02 -4.355829e-03
8.050000e+10 -3.267782e-04 -4.722956e-03 4.582857e-03 1.116308e-02 9.729390e-01 -1.849259e-01 -2.845667e-05 3.017083e-03 4.585290e-03 1.116690e-02 3.448832e-04 -3.274088e-03 -5.485475e-05 2.957094e-03 9.730964e-01 -1.843770e-01 9.731758e-01 -1.837404e-01 1.418024e-04 3.591941e-03 1.406698e-02 -7.213054e-03 1.364361e-03 1.298162e-02 1.266752e-04 3.519442e-03 9.731140e-01 -1.837224e-01 1.385268e-03 1.297258e-02 1.406887e-02 -4.799286e-03
8.400000e+10 -9.376947e-04 -4.929195e-03 5.024775e-03 1.154413e-02 9.712707e-01 -1.927392e-01 -2.120773e-05 3.183703e-03 5.026953e-03 1.154821e-02 -1.910932e-04 -3.432426e-03 -4.966339e-05 3.121351e-03 9.714368e-01 -1.921641e-01 9.715117e-01 -1.914965e-01 1.604760e-04 3.780316e-03 1.465832e-02 -7.778260e-03 1.450918e-03 1.352849e-02 1.444975e-04 3.704958e-03 9.714461e-01 -1.914744e-01 1.472785e-03 1.351874e-02 1.468111e-02 -5.262768e-03
8.750000e+10 -1.581656e-03 -5.125174e-03 5.478935e-03 1.190883e-02 9.695391e-01 -2.005379e-01 -9.256467e-06 3.355641e-03 5.480862e-03 1.191321e-02 -7.577241e-04 -3.583070e-03 -3.986283e-05 3.290954e-03 9.697147e-01 -1.999360e-01 9.697854e-01 -1.992365e-01 1.841812e-04 3.973771e-03 1.526309e-02 -8.362592e-03 1.538868e-03 1.407263e-02 1.673326e-04 3.895571e-03 9.697160e-01 -1.992100e-01 1.561738e-03 1.406218e-02 1.530701e-02 -5.746575e-03
9.100000e+10 -2.258652e-03 -5.309950e-03 5.944503e-03 1.225733e-02 9.677440e-01 -2.083214e-01 7.857753e-06 3.532555e-03 5.946187e-03 1.226204e-02 -1.355117e-03 -3.725076e-03 -2.499297e-05 3.465562e-03 9.679301e-01 -2.076922e-01 9.679970e-01 -2.069601e-01 2.133730e-04 4.171963e-03 1.588083e-02 -8.966388e-03 1.627975e-03 1.461425e-02 1.956364e-04 4.090934e-03 9.679240e-01 -2.069286e-01 1.651893e-03 1.460309e-02 1.594604e-02 -6.250976e-03
9.450000e+10 -2.968643e-03 -5.482560e-03 6.420713e-03 1.258979e-02 9.658855e-01 -2.160892e-01 3.054753e-05 3.714087e-03 6.422163e-03 1.259486e-02 -1.983346e-03 -3.857477e-03 -4.641602e-06 3.644822e-03 9.660831e-01 -2.154322e-01 9.661464e-01 -2.146667e-01 2.484588e-04 4.374531e-03 1.651109e-02 -9.589960e-03 1.718032e-03 1.515355e-02 2.298163e-04 4.290688e-03 9.660700e-01 -2.146299e-01 1.743046e-03 1.514169e-02 1.659763e-02 -6.776210e-03
9.800000e+10 -3.711560e-03 -5.642022e-03 6.906861e-03 1.290640e-02 9.639636e-01 -2.238407e-01 5.918053e-05 3.899867e-03 6.908089e-03 1.291185e-02 -2.642443e-03 -3.979290e-03 2.155872e-05 3.828365e-03 9.641737e-01 -2.231556e-01 9.642339e-01 -2.223559e-01 2.898007e-04 4.581102e-03 1.715338e-02 -1.023359e-02 1.808858e-03 1.569076e-02 2.702350e-04 4.494460e-03 9.641543e-01 -2.223134e-01 1.835018e-03 1.567820e-02 1.726123e-02 -7.322487e-03
1.015000e+11 -4.487302e-03 -5.787347e-03 7.402304e-03 1.320733e-02 9.619782e-01 -2.315755e-01 9.408232e-05 4.089518e-03 7.403323e-03 1.321320e-02 -3.332400e-03 -4.089516e-03 5.393349e-05 4.015816e-03 9.622019e-01 -2.308618e-01 9.622594e-01 -2.300273e-01 3.377192e-04 4.791298e-03 1.780724e-02 -1.089755e-02 1.900299e-03 1.622611e-02 3.172132e-04 4.701871e-03 9.621769e-01 -2.299788e-01 1.927655e-03 1.621282e-02 1.793629e-02 -7.889993e-03
1.050000e+11 -5.295730e-03 -5.917532e-03 7.906448e-03 1.349281e-02 9.599294e-01 -2.392929e-01 1.355390e-04 4.282655e-03 7.907273e-03 1.349912e-02 -4.053168e-03 -4.187147e-03 9.276886e-05 4.206794e-03 9.601678e-01 -2.385505e-01 9.602230e-01 -2.376805e-01 3.924950e-04 5.004734e-03 1.847219e-02 -1.158208e-02 1.992222e-03 1.675980e-02 3.710321e-04 4.912534e-03 9.601380e-01 -2.376257e-01 2.020826e-03 1.674579e-02 1.862228e-02 -8.478896e-03
1.085000e+11 -6.136668e-03 -6.031574e-03 8.418750e-03 1.376304e-02 9.578172e-01 -2.469927e-01 1.837997e-04 4.478892e-03 8.419397e-03 1.376980e-02 -4.804653e-03 -4.271172e-03 1.383142e-04 4.400916e-03 9.580715e-01 -2.462213e-01 9.581250e-01 -2.453152e-01 4.543725e-04 5.221020e-03 1.914775e-02 -1.228739e-02 2.084518e-03 1.729207e-02 4.319362e-04 5.126062e-03 9.580377e-01 -2.452537e-01 2.114423e-03 1.727732e-02 1.931867e-02 -9.089344e-03
1.120000e+11 -7.009904e-03 -6.128466e-03 8.938713e-03 1.401822e-02 9.556417e-01 -2.546741e-01 2.390790e-04 4.677842e-03 8.939199e-03 1.402547e-02 -5.586719e-03 -4.340575e-03 1.907843e-04 4.597796e-03 9.559130e-01 -2.538736e-01 9.559654e-01 -2.529308e-01 5.235614e-04 5.439769e-03 1.983345e-02 -1.301372e-02 2.177098e-03 1.782315e-02 5.001355e-04 5.342065e-03 9.558761e-01 -2.528624e-01 2.208358e-03 1.780763e-02 2.002495e-02 -9.721472e-03
1.155000e+11 -7.915187e-03 -6.207203e-03 9.465877e-03 1.425857e-02 9.534029e-01 -2.623369e-01 3.015592e-04 4.879119e-03 9.466222e-03 1.426632e-02 -6.399186e-03 -4.394343e-03 2.503621e-04 4.797051e-03 9.536925e-01 -2.615070e-01 9.537443e-01 -2.605271e-01 6.002394e-04 5.660594e-03 2.052884e-02 -1.376125e-02 2.269894e-03 1.835325e-02 5.758080e-04 5.560156e-03 9.536533e-01 -2.604515e-01 2.302563e-03 1.833695e-02 2.074060e-02 -1.037540e-02
1.190000e+11 -8.852229e-03 -6.266786e-03 9.999826e-03 1.448430e-02 9.511009e-01 -2.699805e-01 3.713924e-04 5.082339e-03 1.000005e-02 1.449257e-02 -7.241834e-03 -4.431468e-03 3.172000e-04 4.998302e-03 9.514099e-01 -2.691213e-01 9.514618e-01 -2.681037e-01 6.845543e-04 5.883111e-03 2.123346e-02 -1.453017e-02 2.362855e-03 1.888260e-02 6.591015e-04 5.779951e-03 9.513695e-01 -2.680206e-01 2.396987e-03 1.886550e-02 2.146516e-02 -1.105125e-02
1.225000e+11 -9.820708e-03 -6.306220e-03 1.054017e-02 1.469561e-02 9.487358e-01 -2.776044e-01 4.487027e-04 5.287126e-03 1.054030e-02 1.470442e-02 -8.114400e-03 -4.450949e-03 3.914229e-04 5.201173e-03 9.490655e-01 -2.767159e-01 9.491180e-01 -2.756601e-01 7.766260e-04 6.106941e-03 2.194684e-02 -1.532066e-02 2.455946e-03 1.941141e-02 7.501362e-04 6.001071e-03 9.490248e-01 -2.755694e-01 2.491596e-03 1.939348e-02 2.219813e-02 -1.174912e-02
1.260000e+11 -1.082026e-02 -6.324524e-03 1.108657e-02 1.489270e-02 9.463076e-01 -2.852082e-01 5.335882e-04 5.493106e-03 1.108661e-02 1.490205e-02 -9.016586e-03 -4.451796e-03 4.731295e-04 5.405293e-03 9.466592e-01 -2.842904e-01 9.467130e-01 -2.831960e-01 8.765487e-04 6.331710e-03 2.266856e-02 -1.613289e-02 2.549151e-03 1.993989e-02 8.490063e-04 6.223141e-03 9.466193e-01 -2.830975e-01 2.586372e-03 1.992110e-02 2.293907e-02 -1.246911e-02
1.295000e+11 -1.185050e-02 -6.320726e-03 1.163869e-02 1.507575e-02 9.438164e-01 -2.927913e-01 6.261227e-04 5.699914e-03 1.163867e-02 1.508567e-02 -9.948051e-03 -4.433031e-03 5.623948e-04 5.610300e-03 9.441912e-01 -2.918444e-01 9.442469e-01 -2.907111e-01 9.843924e-04 6.557053e-03 2.339816e-02 -1.696705e-02 2.642464e-03 2.046826e-02 9.557819e-04 6.445796e-03 9.441530e-01 -2.906045e-01 2.681311e-03 2.044858e-02 2.368750e-02 -1.321133e-02
1.330000e+11 -1.291099e-02 -6.293866e-03 1.219624e-02 1.524496e-02 9.412623e-01 -3.003534e-01 7.263580e-04 5.907193e-03 1.219618e-02 1.525546e-02 -1.090842e-02 -4.393691e-03 6.592713e-04 5.815839e-03 9.416615e-01 -2.993775e-01 9.417198e-01 -2.982048e-01 1.100205e-03 6.782611e-03 2.413523e-02 -1.782328e-02 2.735897e-03 2.099671e-02 1.070511e-03 6.668675e-03 9.416261e-01 -2.980901e-01 2.776424e-03 2.097611e-02 2.444301e-02 -1.397587e-02
1.365000e+11 -1.400129e-02 -6.243001e-03 1.275893e-02 1.540049e-02 9.386453e-01 -3.078940e-01 8.343252e-04 6.114593e-03 1.275886e-02 1.541158e-02 -1.189729e-02 -4.332826e-03 7.637911e-04 6.021564e-03 9.390702e-01 -3.068893e-01 9.391318e-01 -3.056770e-01 1.224015e-03 7.008034e-03 2.487932e-02 -1.870175e-02 2.829473e-03 2.152543e-02 1.193222e-03 6.891430e-03 9.390386e-01 -3.055540e-01 2.871733e-03 2.150387e-02 2.520514e-02 -1.476283e-02
1.400000e+11 -1.512089e-02 -6.167205e-03 1.332653e-02 1.554250e-02 9.359656e-01 -3.154126e-01 9.500367e-04 6.321775e-03 1.332647e-02 1.555419e-02 -1.291422e-02 -4.249507e-03 8.759677e-04 6.227135e-03 9.364173e-01 -3.143794e-01 9.364829e-01 -3.131271e-01 1.355831e-03 7.232980e-03 2.563001e-02 -1.960263e-02 2.923226e-03 2.205462e-02 1.323923e-03 7.113717e-03 9.363907e-01 -3.129957e-01 2.967271e-03 2.203207e-02 2.597348e-02 -1.557230e-02
1.435000e+11 -1.626928e-02 -6.065566e-03 1.389880e-02 1.567116e-02 9.332231e-01 -3.229087e-01 1.073487e-03 6.528408e-03 1.389877e-02 1.568345e-02 -1.395873e-02 -4.142820e-03 9.957972e-04 6.432227e-03 9.337030e-01 -3.218473e-01 9.337733e-01 -3.205547e-01 1.495644e-03 7.457119e-03 2.638690e-02 -2.052607e-02 3.017202e-03 2.258446e-02 1.462607e-03 7.335206e-03 9.336824e-01 -3.204149e-01 3.063084e-03 2.256087e-02 2.674761e-02 -1.640439e-02
1.470000e+11 -1.744592e-02 -5.937193e-03 1.447551e-02 1.578659e-02 9.304180e-01 -3.303818e-01 1.204656e-03 6.734171e-03 1.447554e-02 1.579950e-02 -1.503032e-02 -4.011872e-03 1.123260e-03 6.636520e-03 9.309272e-01 -3.292926e-01 9.310030e-01 -3.279595e-01 1.643432e-03 7.680128e-03 2.714954e-02 -2.147223e-02 3.111455e-03 2.311512e-02 1.609248e-03 7.555575e-03 9.309137e-01 -3.278112e-01 3.159225e-03 2.309045e-02 2.752713e-02 -1.725919e-02
1.505000e+11 -1.865024e-02 -5.781212e-03 1.505648e-02 1.588894e-02 9.275503e-01 -3.378314e-01 1.343508e-03 6.938755e-03 1.505658e-02 1.590247e-02 -1.612847e-02 -3.855791e-03 1.258322e-03 6.839706e-03 9.280902e-01 -3.367148e-01 9.281720e-01 -3.353411e-01 1.799154e-03 7.901697e-03 2.791754e-02 -2.244127e-02 3.206049e-03 2.364677e-02 1.763810e-03 7.774511e-03 9.280849e-01 -3.351842e-01 3.255758e-03 2.362098e-02 2.831161e-02 -1.813680e-02
1.540000e+11 -1.988164e-02 -5.596771e-03 1.564150e-02 1.597833e-02 9.246201e-01 -3.452572e-01 1.489995e-03 7.141860e-03 1.564170e-02 1.599248e-02 -1.725262e-02 -3.673724e-03 1.400937e-03 7.041488e-03 9.251918e-01 -3.441136e-01 9.252805e-01 -3.426991e-01 1.962762e-03 8.121523e-03 2.869047e-02 -2.343335e-02 3.301057e-03 2.417957e-02 1.926240e-03 7.991713e-03 9.251958e-01 -3.425335e-01 3.352753e-03 2.415261e-02 2.910067e-02 -1.903733e-02
1.575000e+11 -2.113951e-02 -5.383037e-03 1.623041e-02 1.605486e-02 9.216276e-01 -3.526585e-01 1.644056e-03 7.343194e-03 1.623074e-02 1.606964e-02 -1.840219e-02 -3.464839e-03 1.551044e-03 7.241577e-03 9.222323e-01 -3.514885e-01 9.223285e-01 -3.500329e-01 2.134190e-03 8.339315e-03 2.946792e-02 -2.444863e-02 3.396558e-03 2.471368e-02 2.096475e-03 8.206889e-03 9.222467e-01 -3.498588e-01 3.450290e-03 2.468550e-02 2.989390e-02 -1.996088e-02
1.610000e+11 -2.242319e-02 -5.139195e-03 1.682303e-02 1.611863e-02 9.185726e-01 -3.600349e-01 1.805619e-03 7.542480e-03 1.682351e-02 1.613404e-02 -1.957657e-02 -3.228327e-03 1.708576e-03 7.439697e-03 9.192116e-01 -3.588390e-01 9.193160e-01 -3.573422e-01 2.313366e-03 8.554793e-03 3.024948e-02 -2.548727e-02 3.492640e-03 2.524925e-02 2.274441e-03 8.419758e-03 9.192374e-01 -3.571595e-01 3.548454e-03 2.521980e-02 3.069091e-02 -2.090756e-02
1.645000e+11 -2.373204e-02 -4.864454e-03 1.741922e-02 1.616974e-02 9.154555e-01 -3.673858e-01 1.974605e-03 7.739447e-03 1.741986e-02 1.618579e-02 -2.077516e-02 -2.963399e-03 1.873452e-03 7.635581e-03 9.161298e-01 -3.661647e-01 9.162432e-01 -3.646266e-01 2.500205e-03 8.767685e-03 3.103471e-02 -2.654942e-02 3.589394e-03 2.578640e-02 2.460054e-03 8.630049e-03 9.161682e-01 -3.644353e-01 3.647337e-03 2.575563e-02 3.149129e-02 -2.187750e-02
1.680000e+11 -2.506538e-02 -4.558043e-03 1.801881e-02 1.620827e-02 9.122762e-01 -3.747109e-01 2.150924e-03 7.933837e-03 1.801964e-02 1.622494e-02 -2.199729e-02 -2.669289e-03 2.045583e-03 7.828969e-03 9.129870e-01 -3.734650e-01 9.131101e-01 -3.718857e-01 2.694616e-03 8.977730e-03 3.182322e-02 -2.763524e-02 3.686919e-03 2.632528e-02 2.653223e-03 8.837500e-03 9.130391e-01 -3.716858e-01 3.747035e-03 2.629313e-02 3.229465e-02 -2.287078e-02
1.715000e+11 -2.642249e-02 -4.219211e-03 1.862166e-02 1.623427e-02 9.090348e-01 -3.820095e-01 2.334477e-03 8.125399e-03 1.862271e-02 1.625158e-02 -2.324232e-02 -2.345252e-03 2.224875e-03 8.019617e-03 9.097833e-01 -3.807396e-01 9.099168e-01 -3.791188e-01 2.896498e-03 9.184677e-03 3.261457e-02 -2.874489e-02 3.785320e-03 2.686601e-02 2.853845e-03 9.041860e-03 9.098501e-01 -3.789105e-01 3.847651e-03 2.683242e-02 3.310059e-02 -2.388755e-02
1.750000e+11 -2.780267e-02 -3.847229e-03 1.922764e-02 1.624782e-02 9.057314e-01 -3.892811e-01 2.525160e-03 8.313895e-03 1.922892e-02 1.626576e-02 -2.450956e-02 -1.990566e-03 2.411224e-03 8.207284e-03 9.065187e-01 -3.879879e-01 9.066633e-01 -3.863257e-01 3.105744e-03 9.388284e-03 3.340833e-02 -2.987854e-02 3.884703e-03 2.740871e-02 3.061815e-03 9.242887e-03 9.066013e-01 -3.861089e-01 3.949292e-03 2.737363e-02 3.390871e-02 -2.492790e-02
1.785000e+11 -2.920519e-02 -3.441388e-03 1.983660e-02 1.624897e-02 9.023661e-01 -3.965253e-01 2.722862e-03 8.499093e-03 1.983814e-02 1.626754e-02 -2.579830e-02 -1.604531e-03 2.604521e-03 8.391744e-03 9.031934e-01 -3.952095e-01 9.033497e-01 -3.935058e-01 3.322239e-03 9.588319e-03 3.420409e-02 -3.103633e-02 3.985181e-03 2.795349e-02 3.277017e-03 9.440349e-03 9.032928e-01 -3.932807e-01 4.052068e-03 2.791685e-02 3.471861e-02 -2.599196e-02
1.820000e+11 -3.062929e-02 -3.001003e-03 2.044841e-02 1.623776e-02 8.989390e-01 -4.037414e-01 2.927466e-03 8.680773e-03 2.045024e-02 1.625695e-02 -2.710785e-02 -1.186467e-03 2.804650e-03 8.572777e-03 8.998073e-01 -4.024038e-01 8.999761e-01 -4.006587e-01 3.545865e-03 9.784559e-03 3.500140e-02 -3.221842e-02 4.086871e-03 2.850045e-02 3.499332e-03 9.634022e-03 8.999246e-01 -4.004253e-01 4.156094e-03 2.846220e-02 3.552988e-02 -2.707985e-02
1.855000e+11 -3.207421e-02 -2.525406e-03 2.106294e-02 1.621422e-02 8.954503e-01 -4.109290e-01 3.138850e-03 8.858724e-03 2.106507e-02 1.623403e-02 -2.843747e-02 -7.357174e-04 3.011492e-03 8.750173e-03 8.963605e-01 -4.095704e-01 8.965426e-01 -4.077838e-01 3.776497e-03 9.976789e-03 3.579983e-02 -3.342497e-02 4.189890e-03 2.904969e-02 3.728635e-03 9.823692e-03 8.964967e-01 -4.075423e-01 4.261487e-03 2.900976e-02 3.634212e-02 -2.819168e-02
1.890000e+11 -3.353917e-02 -2.013953e-03 2.168007e-02 1.617838e-02 8.918999e-01 -4.180875e-01 3.356887e-03 9.032740e-03 2.168252e-02 1.619882e-02 -2.978643e-02 -2.516466e-04 3.224922e-03 8.923729e-03 8.928533e-01 -4.167087e-01 8.930491e-01 -4.148808e-01 4.014006e-03 1.016480e-02 3.659894e-02 -3.465613e-02 4.294363e-03 2.960131e-02 3.964798e-03 1.000915e-02 8.930094e-01 -4.146312e-01 4.368368e-03 2.955963e-02 3.715491e-02 -2.932758e-02
1.925000e+11 -3.502339e-02 -1.466019e-03 2.229965e-02 1.613027e-02 8.882881e-01 -4.252164e-01 3.581449e-03 9.202628e-03 2.230245e-02 1.615132e-02 -3.115396e-02 2.663597e-04 3.444811e-03 9.093254e-03 8.892855e-01 -4.238182e-01 8.894959e-01 -4.219490e-01 4.258259e-03 1.034841e-02 3.739828e-02 -3.591205e-02 4.400412e-03 3.015538e-02 4.207686e-03 1.019021e-02 8.894626e-01 -4.216915e-01 4.476861e-03 3.011190e-02 3.796783e-02 -3.048767e-02
1.960000e+11 -3.652606e-02 -8.810009e-04 2.292157e-02 1.606990e-02 8.846149e-01 -4.323151e-01 3.812400e-03 9.368201e-03 2.292474e-02 1.609155e-02 -3.253930e-02 8.188947e-04 3.671028e-03 9.258560e-03 8.856574e-01 -4.308985e-01 8.858830e-01 -4.289880e-01 4.509119e-03 1.052741e-02 3.819739e-02 -3.719287e-02 4.508166e-03 3.071200e-02 4.457163e-03 1.036667e-02 8.858565e-01 -4.287227e-01 4.587091e-03 3.066663e-02 3.878047e-02 -3.167206e-02
1.995000e+11 -3.804636e-02 -2.583160e-04 2.354570e-02 1.599727e-02 8.808805e-01 -4.393830e-01 4.049603e-03 9.529279e-03 2.354924e-02 1.601953e-02 -3.394167e-02 1.406530e-03 3.903437e-03 9.419472e-03 8.819690e-01 -4.379489e-01 8.822105e-01 -4.359973e-01 4.766447e-03 1.070163e-02 3.899582e-02 -3.849874e-02 4.617753e-03 3.127122e-02 4.713089e-03 1.053835e-02 8.821910e-01 -4.357243e-01 4.699185e-03 3.122391e-02 3.959239e-02 -3.288087e-02
2.030000e+11 -3.958347e-02 4.025983e-04 2.417190e-02 1.591240e-02 8.770849e-01 -4.464197e-01 4.292920e-03 9.685691e-03 2.417585e-02 1.593524e-02 -3.536029e-02 2.029818e-03 4.141902e-03 9.575819e-03 8.782204e-01 -4.449690e-01 8.784785e-01 -4.429763e-01 5.030100e-03 1.087089e-02 3.979311e-02 -3.982979e-02 4.729305e-03 3.183312e-02 4.975321e-03 1.070508e-02 8.784664e-01 -4.426959e-01 4.813273e-03 3.178379e-02 4.040317e-02 -3.411421e-02
2.065000e+11 -4.113655e-02 1.102284e-03 2.480004e-02 1.581527e-02 8.732284e-01 -4.534245e-01 4.542207e-03 9.837274e-03 2.480441e-02 1.583870e-02 -3.679435e-02 2.689287e-03 4.386281e-03 9.727438e-03 8.744117e-01 -4.519583e-01 8.746871e-01 -4.499246e-01 5.299933e-03 1.103502e-02 4.058877e-02 -4.118617e-02 4.842953e-03 3.239776e-02 5.243714e-03 1.086670e-02 8.746826e-01 -4.496369e-01 4.929486e-03 3.234634e-02 4.121237e-02 -3.537220e-02
2.100000e+11 -4.270475e-02 1.841263e-03 2.542999e-02 1.570589e-02 8.693110e-01 -4.603969e-01 4.797321e-03 9.983869e-03 2.543480e-02 1.572989e-02 -3.824304e-02 3.385450e-03 4.636433e-03 9.874175e-03 8.705431e-01 -4.589160e-01 8.708364e-01 -4.568415e-01 5.575799e-03 1.119388e-02 4.138234e-02 -4.256801e-02 4.958833e-03 3.296520e-02 5.518121e-03 1.102303e-02 8.708398e-01 -4.565467e-01 5.047955e-03 3.291161e-02 4.201953e-02 -3.665495e-02
2.135000e+11 -4.428723e-02 2.620037e-03 2.606161e-02 1.558423e-02 8.653329e-01 -4.673363e-01 5.058116e-03 1.012533e-02 2.606689e-02 1.560881e-02 -3.970555e-02 4.118795e-03 4.892214e-03 1.001588e-02 8.666147e-01 -4.658418e-01 8.669264e-01 -4.637267e-01 5.857548e-03 1.134730e-02 4.217333e-02 -4.397543e-02 5.077079e-03 3.353548e-02 5.798392e-03 1.117394e-02 8.669381e-01 -4.634249e-01 5.168814e-03 3.347966e-02 4.282422e-02 -3.796256e-02
2.170000e+11 -4.588310e-02 3.439087e-03 2.669478e-02 1.545030e-02 8.612942e-01 -4.742421e-01 5.324445e-03 1.026150e-02 2.670053e-02 1.547543e-02 -4.118105e-02 4.889793e-03 5.153478e-03 1.015241e-02 8.626265e-01 -4.727351e-01 8.629574e-01 -4.705794e-01 6.145032e-03 1.149513e-02 4.296126e-02 -4.540855e-02 5.197828e-03 3.410864e-02 6.084376e-03 1.131927e-02 8.629777e-01 -4.702708e-01 5.292198e-03 3.405052e-02 4.362598e-02 -3.929513e-02
2.205000e+11 -4.749150e-02 4.298875e-03 2.732935e-02 1.530406e-02 8.571952e-01 -4.811137e-01 5.596158e-03 1.039226e-02 2.733559e-02 1.532974e-02 -4.266871e-02 5.698892e-03 5.420079e-03 1.028363e-02 8.585787e-01 -4.795952e-01 8.589295e-01 -4.773992e-01 6.438097e-03 1.163724e-02 4.374563e-02 -4.686748e-02 5.321215e-03 3.468474e-02 6.375921e-03 1.145889e-02 8.589585e-01 -4.770841e-01 5.418241e-03 3.462423e-02 4.442435e-02 -4.065277e-02
2.240000e+11 -4.911153e-02 5.199843e-03 2.796517e-02 1.514550e-02 8.530359e-01 -4.879506e-01 5.873105e-03 1.051747e-02 2.797193e-02 1.517172e-02 -4.416767e-02 6.546524e-03 5.691869e-03 1.040941e-02 8.544715e-01 -4.864217e-01 8.548427e-01 -4.841855e-01 6.736589e-03 1.177350e-02 4.452593e-02 -4.835234e-02 5.447379e-03 3.526380e-02 6.672875e-03 1.159265e-02 8.548808e-01 -4.838641e-01 5.547079e-03 3.520083e-02 4.521886e-02 -4.203556e-02
2.275000e+11 -5.074232e-02 6.142413e-03 2.860210e-02 1.497460e-02 8.488166e-01 -4.947521e-01 6.155136e-03 1.063700e-02 2.860939e-02 1.500135e-02 -4.567709e-02 7.433100e-03 5.968699e-03 1.052962e-02 8.503050e-01 -4.932140e-01 8.506972e-01 -4.909378e-01 7.040356e-03 1.190376e-02 4.530166e-02 -4.986323e-02 5.576457e-03 3.584586e-02 6.975081e-03 1.172043e-02 8.507447e-01 -4.906102e-01 5.678849e-03 3.578034e-02 4.600904e-02 -4.344360e-02
2.310000e+11 -5.238296e-02 7.126988e-03 2.924000e-02 1.479134e-02 8.445373e-01 -5.015177e-01 6.442098e-03 1.075074e-02 2.924784e-02 1.481860e-02 -4.719611e-02 8.359009e-03 6.250418e-03 1.064414e-02 8.460793e-01 -4.999714e-01 8.464932e-01 -4.976555e-01 7.349241e-03 1.202792e-02 4.607231e-02 -5.140024e-02 5.708589e-03 3.643093e-02 7.282385e-03 1.184211e-02 8.465502e-01 -4.973219e-01 5.813687e-03 3.636279e-02 4.679441e-02 -4.487695e-02
2.345000e+11 -5.403254e-02 8.153950e-03 2.987872e-02 1.459567e-02 8.401984e-01 -5.082467e-01 6.733839e-03 1.085856e-02 2.988712e-02 1.462344e-02 -4.872387e-02 9.324624e-03 6.536878e-03 1.075287e-02 8.417946e-01 -5.066934e-01 8.422308e-01 -5.043380e-01 7.663089e-03 1.214585e-02 4.683735e-02 -5.296346e-02 5.843912e-03 3.701903e-02 7.594630e-03 1.195757e-02 8.422976e-01 -5.039987e-01 5.951730e-03 3.694820e-02 4.757449e-02 -4.633572e-02
2.380000e+11 -5.569015e-02 9.223664e-03 3.051810e-02 1.438759e-02 8.357999e-01 -5.149386e-01 7.030206e-03 1.096036e-02 3.052707e-02 1.441585e-02 -5.025949e-02 1.033030e-02 6.827926e-03 1.085570e-02 8.374511e-01 -5.133794e-01 8.379102e-01 -5.109847e-01 7.981743e-03 1.225745e-02 4.759627e-02 -5.455297e-02 5.982567e-03 3.761019e-02 7.911660e-03 1.206670e-02 8.379870e-01 -5.106400e-01 6.093115e-03 3.753658e-02 4.834878e-02 -4.781995e-02
2.415000e+11 -5.735487e-02 1.033647e-02 3.115798e-02 1.416706e-02 8.313421e-01 -5.215928e-01 7.331046e-03 1.105604e-02 3.116755e-02 1.419580e-02 -5.180210e-02 1.137636e-02 7.123412e-03 1.095251e-02 8.330489e-01 -5.200289e-01 8.335314e-01 -5.175951e-01 8.305045e-03 1.236260e-02 4.834852e-02 -5.616885e-02 6.124691e-03 3.820442e-02 8.233317e-03 1.216939e-02 8.336186e-01 -5.172451e-01 6.237979e-03 3.812794e-02 4.911678e-02 -4.932971e-02
2.450000e+11 -5.902578e-02 1.149270e-02 3.179821e-02 1.393405e-02 8.268252e-01 -5.282086e-01 7.636203e-03 1.114550e-02 3.180838e-02 1.396326e-02 -5.335081e-02 1.246313e-02 7.423184e-03 1.104321e-02 8.285882e-01 -5.266412e-01 8.290948e-01 -5.241686e-01 8.632838e-03 1.246120e-02 4.909358e-02 -5.781115e-02 6.270425e-03 3.880171e-02 8.559442e-03 1.226554e-02 8.291925e-01 -5.238136e-01 6.386460e-03 3.872229e-02 4.987801e-02 -5.086507e-02
2.485000e+11 -6.070193e-02 1.269266e-02 3.243862e-02 1.368853e-02 8.222494e-01 -5.347854e-01 7.945525e-03 1.122863e-02 3.244941e-02 1.371819e-02 -5.490474e-02 1.359091e-02 7.727089e-03 1.112771e-02 8.240692e-01 -5.332157e-01 8.246005e-01 -5.307045e-01 8.964964e-03 1.255315e-02 4.983090e-02 -5.947993e-02 6.419906e-03 3.940207e-02 8.889879e-03 1.235505e-02 8.247089e-01 -5.303448e-01 6.538694e-03 3.931963e-02 5.063194e-02 -5.242606e-02
2.520000e+11 -6.238239e-02 1.393662e-02 3.307904e-02 1.343047e-02 8.176149e-01 -5.413227e-01 8.258855e-03 1.130535e-02 3.309047e-02 1.346058e-02 -5.646300e-02 1.475996e-02 8.034976e-03 1.120592e-02 8.194921e-01 -5.397519e-01 8.200486e-01 -5.372024e-01 9.301265e-03 1.263836e-02 5.055994e-02 -6.117524e-02 6.573274e-03 4.000549e-02 9.224467e-03 1.243783e-02 8.201679e-01 -5.368382e-01 6.694819e-03 3.991995e-02 5.137807e-02 -5.401274e-02
2.555000e+11 -6.406622e-02 1.522486e-02 3.371931e-02 1.315984e-02 8.129220e-01 -5.478197e-01 8.576041e-03 1.137558e-02 3.373139e-02 1.319038e-02 -5.802467e-02 1.597054e-02 8.346692e-03 1.127774e-02 8.148571e-01 -5.462490e-01 8.154393e-01 -5.436615e-01 9.641581e-03 1.271675e-02 5.128013e-02 -6.289711e-02 6.730667e-03 4.061198e-02 9.563049e-03 1.251379e-02 8.155698e-01 -5.432930e-01 6.854970e-03 4.052325e-02 5.211588e-02 -5.562512e-02
2.590000e+11 -6.575247e-02 1.655763e-02 3.435925e-02 1.287662e-02 8.081708e-01 -5.542759e-01 8.896926e-03 1.143923e-02 3.437200e-02 1.290758e-02 -5.958887e-02 1.722291e-02 8.662084e-03 1.134311e-02 8.101643e-01 -5.527066e-01 8.107730e-01 -5.500813e-01 9.985754e-03 1.278822e-02 5.199094e-02 -6.464557e-02 6.892224e-03 4.122152e-02 9.905465e-03 1.258284e-02 8.109148e-01 -5.497089e-01 7.019285e-03 4.112952e-02 5.284485e-02 -5.726323e-02
2.625000e+11 -6.744019e-02 1.793515e-02 3.499869e-02 1.258078e-02 8.033617e-01 -5.606906e-01 9.221356e-03 1.149622e-02 3.501211e-02 1.261214e-02 -6.115468e-02 1.851726e-02 8.981000e-03 1.140194e-02 8.054141e-01 -5.591240e-01 8.060497e-01 -5.564613e-01 1.033363e-02 1.285269e-02 5.269178e-02 -6.642063e-02 7.058081e-03 4.183409e-02 1.025156e-02 1.264490e-02 8.062030e-01 -5.560851e-01 7.187898e-03 4.173873e-02 5.356445e-02 -5.892710e-02
2.660000e+11 -6.912841e-02 1.935763e-02 3.563745e-02 1.227229e-02 7.984949e-01 -5.670633e-01 9.549176e-03 1.154648e-02 3.565156e-02 1.230404e-02 -6.272120e-02 1.985381e-02 9.303288e-03 1.145416e-02 8.006067e-01 -5.655006e-01 8.012697e-01 -5.628007e-01 1.068504e-02 1.291010e-02 5.338210e-02 -6.822231e-02 7.228377e-03 4.244967e-02 1.060116e-02 1.269991e-02 8.014347e-01 -5.624211e-01 7.360946e-03 4.235087e-02 5.427415e-02 -6.061672e-02
2.695000e+11 -7.081618e-02 2.082527e-02 3.627534e-02 1.195113e-02 7.935707e-01 -5.733932e-01 9.880230e-03 1.158994e-02 3.629015e-02 1.198325e-02 -6.428750e-02 2.123275e-02 9.628793e-03 1.149971e-02 7.957422e-01 -5.718357e-01 7.964333e-01 -5.690990e-01 1.103982e-02 1.296036e-02 5.406133e-02 -7.005060e-02 7.403247e-03 4.306825e-02 1.095412e-02 1.274778e-02 7.966101e-01 -5.687162e-01 7.538562e-03 4.296592e-02 5.497340e-02 -6.233209e-02
2.730000e+11 -7.250252e-02 2.233822e-02 3.691219e-02 1.161726e-02 7.885892e-01 -5.796798e-01 1.021436e-02 1.162653e-02 3.692770e-02 1.164974e-02 -6.585267e-02 2.265422e-02 9.957365e-03 1.153850e-02 7.908210e-01 -5.781288e-01 7.915406e-01 -5.753555e-01 1.139783e-02 1.300341e-02 5.472889e-02 -7.190549e-02 7.582829e-03 4.368979e-02 1.131028e-02 1.278844e-02 7.917294e-01 -5.749698e-01 7.720881e-03 4.358385e-02 5.566168e-02 -6.407320e-02
2.765000e+11 -7.418647e-02 2.389665e-02 3.754779e-02 1.127068e-02 7.835509e-01 -5.859224e-01 1.055142e-02 1.165619e-02 3.756403e-02 1.130350e-02 -6.741579e-02 2.411839e-02 1.028885e-02 1.157049e-02 7.858433e-01 -5.843792e-01 7.865919e-01 -5.815697e-01 1.175890e-02 1.303919e-02 5.538420e-02 -7.378694e-02 7.767257e-03 4.431426e-02 1.166948e-02 1.282184e-02 7.867929e-01 -5.811813e-01 7.908037e-03 4.420463e-02 5.633844e-02 -6.584002e-02
2.800000e+11 -7.586706e-02 2.550068e-02 3.818197e-02 1.091136e-02 7.784560e-01 -5.921204e-01 1.089125e-02 1.167886e-02 3.819894e-02 1.094451e-02 -6.897594e-02 2.562537e-02 1.062310e-02 1.159562e-02 7.808092e-01 -5.905863e-01 7.815875e-01 -5.877409e-01 1.212288e-02 1.306762e-02 5.602669e-02 -7.569493e-02 7.956666e-03 4.494163e-02 1.203155e-02 1.284791e-02 7.818008e-01 -5.873502e-01 8.100161e-03 4.482822e-02 5.700312e-02 -6.763252e-02
2.835000e+11 -7.754330e-02 2.715043e-02 3.881452e-02 1.053928e-02 7.733048e-01 -5.982731e-01 1.123370e-02 1.169449e-02 3.883223e-02 1.057274e-02 -7.053217e-02 2.717527e-02 1.095995e-02 1.161382e-02 7.757193e-01 -5.967495e-01 7.765276e-01 -5.938685e-01 1.248959e-02 1.308866e-02 5.665576e-02 -7.762941e-02 8.151189e-03 4.557186e-02 1.239635e-02 1.286659e-02 7.767533e-01 -5.934757e-01 8.297387e-03 4.545458e-02 5.765518e-02 -6.945066e-02
2.870000e+11 -7.921422e-02 2.884598e-02 3.944526e-02 1.015443e-02 7.680975e-01 -6.043800e-01 1.157860e-02 1.170302e-02 3.946372e-02 1.018819e-02 -7.208358e-02 2.876819e-02 1.129926e-02 1.162506e-02 7.705736e-01 -6.028681e-01 7.714125e-01 -5.999518e-01 1.285889e-02 1.310225e-02 5.727083e-02 -7.959031e-02 8.350961e-03 4.620491e-02 1.276370e-02 1.287783e-02 7.716509e-01 -5.995573e-01 8.499844e-03 4.608367e-02 5.829407e-02 -7.129438e-02
2.905000e+11 -8.087883e-02 3.058742e-02 4.007397e-02 9.756788e-03 7.628346e-01 -6.104403e-01 1.192582e-02 1.170441e-02 4.009320e-02 9.790834e-03 -7.362922e-02 3.040419e-02 1.164088e-02 1.162927e-02 7.653724e-01 -6.089414e-01 7.662425e-01 -6.059904e-01 1.323061e-02 1.310834e-02 5.787131e-02 -8.157757e-02 8.556113e-03 4.684073e-02 1.313345e-02 1.288158e-02 7.664936e-01 -6.055943e-01 8.707664e-03 4.671545e-02 5.891922e-02 -7.316361e-02
2.940000e+11 -8.253615e-02 3.237479e-02 4.070047e-02 9.346355e-03 7.575164e-01 -6.164534e-01 1.227518e-02 1.169861e-02 4.072046e-02 9.380668e-03 -7.516816e-02 3.208333e-02 1.198465e-02 1.162641e-02 7.601162e-01 -6.149690e-01 7.610179e-01 -6.119834e-01 1.360460e-02 1.310687e-02 5.845660e-02 -8.359110e-02 8.766775e-03 4.747926e-02 1.350544e-02 1.287779e-02 7.612818e-01 -6.115861e-01 8.920974e-03 4.734986e-02 5.953007e-02 -7.505829e-02
2.975000e+11 -8.418520e-02 3.420813e-02 4.132454e-02 8.923119e-03 7.521431e-01 -6.224187e-01 1.262654e-02 1.168557e-02 4.134531e-02 8.957684e-03 -7.669947e-02 3.380565e-02 1.233042e-02 1.161645e-02 7.548052e-01 -6.209501e-01 7.557390e-01 -6.179303e-01 1.398069e-02 1.309781e-02 5.902612e-02 -8.563081e-02 8.983079e-03 4.812047e-02 1.387951e-02 1.286642e-02 7.560158e-01 -6.175321e-01 9.139904e-03 4.798686e-02 6.012607e-02 -7.697831e-02
3.010000e+11 -8.582498e-02 3.608746e-02 4.194597e-02 8.487076e-03 7.467152e-01 -6.283355e-01 1.297975e-02 1.166526e-02 4.196753e-02 8.521876e-03 -7.822221e-02 3.557115e-02 1.267804e-02 1.159934e-02 7.494397e-01 -6.268840e-01 7.504061e-01 -6.238305e-01 1.435873e-02 1.308112e-02 5.957925e-02 -8.769659e-02 9.205152e-03 4.876429e-02 1.425551e-02 1.284742e-02 7.506960e-01 -6.234316e-01 9.364580e-03 4.862638e-02 6.070665e-02 -7.892359e-02
3.045000e+11 -8.745451e-02 3.801276e-02 4.256457e-02 8.038225e-03 7.412330e-01 -6.342033e-01 1.333465e-02 1.163765e-02 4.258692e-02 8.073245e-03 -7.973544e-02 3.737983e-02 1.302735e-02 1.157505e-02 7.440200e-01 -6.327702e-01 7.450195e-01 -6.296833e-01 1.473856e-02 1.305675e-02 6.011542e-02 -8.978832e-02 9.433124e-03 4.941066e-02 1.463326e-02 1.282076e-02 7.453225e-01 -6.292841e-01 9.595128e-03 4.926836e-02 6.127124e-02 -8.089402e-02
3.080000e+11 -8.907280e-02 3.998402e-02 4.318011e-02 7.576569e-03 7.356969e-01 -6.400212e-01 1.369108e-02 1.160269e-02 4.320327e-02 7.611791e-03 -8.123822e-02 3.923167e-02 1.337822e-02 1.154354e-02 7.385465e-01 -6.386080e-01 7.395796e-01 -6.354880e-01 1.512001e-02 1.302467e-02 6.063401e-02 -9.190587e-02 9.667120e-03 5.005951e-02 1.501263e-02 1.278640e-02 7.398959e-01 -6.350888e-01 9.831673e-03 4.991275e-02 6.181927e-02 -8.288946e-02
3.115000e+11 -9.067885e-02 4.200119e-02 4.379239e-02 7.102111e-03 7.301071e-01 -6.457888e-01 1.404889e-02 1.156036e-02 4.381636e-02 7.137520e-03 -8.272962e-02 4.112663e-02 1.373048e-02 1.150479e-02 7.330195e-01 -6.443968e-01 7.340867e-01 -6.412441e-01 1.550294e-02 1.298486e-02 6.113442e-02 -9.404910e-02 9.907266e-03 5.071079e-02 1.539344e-02 1.274431e-02 7.344163e-01 -6.408452e-01 1.007434e-02 5.055947e-02 6.235018e-02 -8.490979e-02
3.150000e+11 -9.227167e-02 4.406421e-02 4.440119e-02 6.614863e-03 7.244643e-01 -6.515053e-01 1.440794e-02 1.151063e-02 4.442597e-02 6.650442e-03 -8.420869e-02 4.306465e-02 1.408399e-02 1.145877e-02 7.274395e-01 -6.501358e-01 7.285411e-01 -6.469510e-01 1.588719e-02 1.293727e-02 6.161606e-02 -9.621784e-02 1.015369e-02 5.136442e-02 1.577553e-02 1.269447e-02 7.288841e-01 -6.465526e-01 1.032325e-02 5.120845e-02 6.286340e-02 -8.695487e-02
3.185000e+11 -9.385028e-02 4.617299e-02 4.500629e-02 6.114835e-03 7.187686e-01 -6.571702e-01 1.476807e-02 1.145348e-02 4.503190e-02 6.150568e-03 -8.567451e-02 4.504565e-02 1.443859e-02 1.140545e-02 7.218067e-01 -6.558246e-01 7.229432e-01 -6.526079e-01 1.627259e-02 1.288188e-02 6.207832e-02 -9.841194e-02 1.040650e-02 5.202032e-02 1.615876e-02 1.263684e-02 7.232997e-01 -6.522104e-01 1.057852e-02 5.185963e-02 6.335835e-02 -8.902452e-02
3.220000e+11 -9.541367e-02 4.832742e-02 4.560747e-02 5.602046e-03 7.130206e-01 -6.627826e-01 1.512912e-02 1.138889e-02 4.563391e-02 5.637916e-03 -8.712612e-02 4.706953e-02 1.479414e-02 1.134481e-02 7.161215e-01 -6.614624e-01 7.172935e-01 -6.582142e-01 1.665898e-02 1.281868e-02 6.252060e-02 -1.006312e-01 1.066584e-02 5.267842e-02 1.654296e-02 1.257141e-02 7.176635e-01 -6.578179e-01 1.084027e-02 5.251291e-02 6.383447e-02 -9.111859e-02
3.255000e+11 -9.696087e-02 5.052739e-02 4.620452e-02 5.076515e-03 7.072206e-01 -6.683421e-01 1.549094e-02 1.131683e-02 4.623179e-02 5.112505e-03 -8.856259e-02 4.913618e-02 1.515048e-02 1.127684e-02 7.103844e-01 -6.670485e-01 7.115922e-01 -6.637693e-01 1.704622e-02 1.274764e-02 6.294230e-02 -1.028754e-01 1.093181e-02 5.333864e-02 1.692797e-02 1.249815e-02 7.119758e-01 -6.633745e-01 1.110862e-02 5.316823e-02 6.429118e-02 -9.323689e-02
3.290000e+11 -9.849088e-02 5.277276e-02 4.679721e-02 4.538266e-03 7.013691e-01 -6.738480e-01 1.585338e-02 1.123730e-02 4.682532e-02 4.574359e-03 -8.998300e-02 5.124545e-02 1.550747e-02 1.120151e-02 7.045957e-01 -6.725824e-01 7.058398e-01 -6.692726e-01 1.743414e-02 1.266875e-02 6.334282e-02 -1.051444e-01 1.120454e-02 5.400089e-02 1.731365e-02 1.241705e-02 7.062370e-01 -6.688795e-01 1.138369e-02 5.382550e-02 6.472791e-02 -9.537922e-02
3.325000e+11 -1.000027e-01 5.506335e-02 4.738532e-02 3.987327e-03 6.954665e-01 -6.792996e-01 1.621629e-02 1.115028e-02 4.741427e-02 4.023507e-03 -9.138639e-02 5.339721e-02 1.586496e-02 1.111883e-02 6.987558e-01 -6.780635e-01 7.000367e-01 -6.747235e-01 1.782258e-02 1.258198e-02 6.372156e-02 -1.074379e-01 1.148414e-02 5.466509e-02 1.769982e-02 1.232810e-02 7.004476e-01 -6.743324e-01 1.166559e-02 5.448464e-02 6.514410e-02 -9.754538e-02
3.360000e+11 -1.014954e-01 5.739898e-02 4.796862e-02 3.423731e-03 6.895134e-01 -6.846962e-01 1.657953e-02 1.105576e-02 4.799842e-02 3.459981e-03 -9.277184e-02 5.559127e-02 1.622279e-02 1.102876e-02 6.928653e-01 -6.834909e-01 6.941833e-01 -6.801211e-01 1.821140e-02 1.248734e-02 6.407792e-02 -1.097557e-01 1.177073e-02 5.533115e-02 1.808633e-02 1.223128e-02 6.946079e-01 -6.797325e-01 1.195443e-02 5.514555e-02 6.553917e-02 -9.973516e-02
3.395000e+11 -1.029679e-01 5.977946e-02 4.854689e-02 2.847515e-03 6.835100e-01 -6.900373e-01 1.694292e-02 1.095374e-02 4.857755e-02 2.883818e-03 -9.413843e-02 5.782744e-02 1.658083e-02 1.093132e-02 6.869244e-01 -6.888642e-01 6.882800e-01 -6.854651e-01 1.860042e-02 1.238480e-02 6.441131e-02 -1.120976e-01 1.206442e-02 5.599897e-02 1.847303e-02 1.212658e-02 6.887183e-01 -6.850791e-01 1.225033e-02 5.580813e-02 6.591255e-02 -1.019483e-01
3.430000e+11 -1.044193e-01 6.220455e-02 4.911990e-02 2.258720e-03 6.774570e-01 -6.953222e-01 1.730634e-02 1.084420e-02 4.915142e-02 2.295058e-03 -9.548521e-02 6.010551e-02 1.693891e-02 1.082650e-02 6.809337e-01 -6.941826e-01 6.823272e-01 -6.907546e-01 1.898950e-02 1.227438e-02 6.472112e-02 -1.144633e-01 1.236532e-02 5.666845e-02 1.885976e-02 1.201401e-02 6.827794e-01 -6.903717e-01 1.255340e-02 5.647231e-02 6.626369e-02 -1.041846e-01
3.465000e+11 -1.058485e-01 6.467402e-02 4.968742e-02 1.657390e-03 6.713547e-01 -7.005503e-01 1.766962e-02 1.072715e-02 4.971980e-02 1.693746e-03 -9.681126e-02 6.242525e-02 1.729690e-02 1.071428e-02 6.748936e-01 -6.994456e-01 6.763255e-01 -6.959891e-01 1.937849e-02 1.215605e-02 6.500677e-02 -1.168524e-01 1.267355e-02 5.733951e-02 1.924636e-02 1.189356e-02 6.767915e-01 -6.956095e-01 1.286373e-02 5.713796e-02 6.659200e-02 -1.064437e-01
3.500000e+11 -1.072547e-01 6.718760e-02 5.024923e-02 1.043574e-03 6.652038e-01 -7.057208e-01 1.803262e-02 1.060260e-02 5.028248e-02 1.079933e-03 -9.811567e-02 6.478641e-02 1.765465e-02 1.059469e-02 6.688046e-01 -7.046525e-01 6.702753e-01 -7.011680e-01 1.976721e-02 1.202983e-02 6.526766e-02 -1.192648e-01 1.298920e-02 5.801203e-02 1.963269e-02 1.176523e-02 6.707550e-01 -7.007919e-01 1.318145e-02 5.780501e-02 6.689695e-02 -1.087255e-01
3.535000e+11 -1.086368e-01 6.974501e-02 5.080510e-02 4.173285e-04 6.590047e-01 -7.108333e-01 1.839518e-02 1.047053e-02 5.083921e-02 4.536714e-04 -9.939750e-02 6.718873e-02 1.801201e-02 1.046770e-02 6.626671e-01 -7.098026e-01 6.641770e-01 -7.062906e-01 2.015553e-02 1.189572e-02 6.550321e-02 -1.217001e-01 1.331239e-02 5.868591e-02 2.001858e-02 1.162902e-02 6.646706e-01 -7.059184e-01 1.350665e-02 5.847333e-02 6.717795e-02 -1.110296e-01
3.570000e+11 -1.099939e-01 7.234594e-02 5.135480e-02 -2.212897e-04 6.527579e-01 -7.158870e-01 1.875716e-02 1.033097e-02 5.138978e-02 -1.849796e-04 -1.006559e-01 6.963191e-02 1.836883e-02 1.033335e-02 6.564817e-01 -7.148953e-01 6.580312e-01 -7.113562e-01 2.054328e-02 1.175371e-02 6.571284e-02 -1.241580e-01 1.364321e-02 5.936104e-02 2.040387e-02 1.148494e-02 6.585385e-01 -7.109882e-01 1.383943e-02 5.914282e-02 6.743446e-02 -1.133557e-01
3.605000e+11 -1.113250e-01 7.499007e-02 5.189809e-02 -8.722172e-04 6.464639e-01 -7.208813e-01 1.911842e-02 1.018391e-02 5.193395e-02 -8.359570e-04 -1.018898e-01 7.211566e-02 1.872497e-02 1.019162e-02 6.502489e-01 -7.199300e-01 6.518383e-01 -7.163643e-01 2.093032e-02 1.160383e-02 6.589596e-02 -1.266382e-01 1.398178e-02 6.003732e-02 2.078843e-02 1.133299e-02 6.523595e-01 -7.160008e-01 1.417989e-02 5.981337e-02 6.766592e-02 -1.157035e-01
3.640000e+11 -1.126291e-01 7.767707e-02 5.243475e-02 -1.535386e-03 6.401233e-01 -7.258157e-01 1.947879e-02 1.002938e-02 5.247148e-02 -1.499193e-03 -1.030985e-01 7.463964e-02 1.908029e-02 1.004254e-02 6.439691e-01 -7.249061e-01 6.455989e-01 -7.213142e-01 2.131648e-02 1.144608e-02 6.605199e-02 -1.291403e-01 1.432819e-02 6.071461e-02 2.117208e-02 1.117320e-02 6.461338e-01 -7.209556e-01 1.452814e-02 6.048487e-02 6.787178e-02 -1.180727e-01
3.675000e+11 -1.139053e-01 8.040655e-02 5.296455e-02 -2.210724e-03 6.337367e-01 -7.306894e-01 1.983814e-02 9.867386e-03 5.300216e-02 -2.174615e-03 -1.042809e-01 7.720352e-02 1.943463e-02 9.886118e-03 6.376429e-01 -7.298229e-01 6.393134e-01 -7.262053e-01 2.170162e-02 1.128048e-02 6.618037e-02 -1.316640e-01 1.468254e-02 6.139282e-02 2.155468e-02 1.100557e-02 6.398621e-01 -7.258518e-01 1.488426e-02 6.115720e-02 6.805149e-02 -1.204629e-01
3.710000e+11 -1.151527e-01 8.317815e-02 5.348726e-02 -2.898154e-03 6.273046e-01 -7.355018e-01 2.019632e-02 9.697944e-03 5.352574e-02 -2.862147e-03 -1.054363e-01 7.980693e-02 1.978785e-02 9.722371e-03 6.312709e-01 -7.346798e-01 6.329825e-01 -7.310370e-01 2.208557e-02 1.110704e-02 6.628053e-02 -1.342089e-01 1.504492e-02 6.207181e-02 2.193608e-02 1.083013e-02 6.335448e-01 -7.306889e-01 1.524835e-02 6.183024e-02 6.820452e-02 -1.228739e-01
3.745000e+11 -1.163702e-01 8.599146e-02 5.400265e-02 -3.597595e-03 6.208276e-01 -7.402524e-01 2.055318e-02 9.521077e-03 5.404201e-02 -3.561706e-03 -1.065636e-01 8.244949e-02 2.013981e-02 9.551318e-03 6.248535e-01 -7.394761e-01 6.266066e-01 -7.358086e-01 2.246820e-02 1.092579e-02 6.635190e-02 -1.367746e-01 1.541542e-02 6.275147e-02 2.231612e-02 1.064688e-02 6.271826e-01 -7.354663e-01 1.562050e-02 6.250387e-02 6.833031e-02 -1.253052e-01
3.780000e+11 -1.175570e-01 8.884605e-02 5.451048e-02 -4.308958e-03 6.143063e-01 -7.449404e-01 2.090858e-02 9.336808e-03 5.455072e-02 -4.273205e-03 -1.076621e-01 8.513080e-02 2.049037e-02 9.372982e-03 6.183914e-01 -7.442113e-01 6.201862e-01 -7.405196e-01 2.284934e-02 1.073674e-02 6.639393e-02 -1.393607e-01 1.579414e-02 6.343167e-02 2.269465e-02 1.045587e-02 6.207759e-01 -7.401833e-01 1.600080e-02 6.317797e-02 6.842835e-02 -1.277565e-01
3.815000e+11 -1.187122e-01 9.174148e-02 5.501054e-02 -5.032154e-03 6.077412e-01 -7.495654e-01 2.126236e-02 9.145160e-03 5.505165e-02 -4.996554e-03 -1.087309e-01 8.785045e-02 2.083939e-02 9.187387e-03 6.118851e-01 -7.488848e-01 6.137221e-01 -7.451693e-01 2.322885e-02 1.053992e-02 6.640606e-02 -1.419668e-01 1.618116e-02 6.411228e-02 2.307152e-02 1.025710e-02 6.143254e-01 -7.448393e-01 1.638934e-02 6.385240e-02 6.849810e-02 -1.302274e-01
3.850000e+11 -1.198347e-01 9.467729e-02 5.550258e-02 -5.767087e-03 6.011331e-01 -7.541267e-01 2.161440e-02 8.946163e-03 5.554457e-02 -5.731656e-03 -1.097690e-01 9.060799e-02 2.118671e-02 8.994560e-03 6.053352e-01 -7.534959e-01 6.072147e-01 -7.497571e-01 2.360658e-02 1.033535e-02 6.638776e-02 -1.445925e-01 1.657657e-02 6.479317e-02 2.344659e-02 1.005061e-02 6.078315e-01 -7.494337e-01 1.678619e-02 6.452704e-02 6.853903e-02 -1.327175e-01
3.885000e+11 -1.209237e-01 9.765300e-02 5.598639e-02 -6.513654e-03 5.944825e-01 -7.586237e-01 2.196454e-02 8.739847e-03 5.602925e-02 -6.478411e-03 -1.107756e-01 9.340297e-02 2.153221e-02 8.794531e-03 5.987423e-01 -7.580439e-01 6.006646e-01 -7.542824e-01 2.398238e-02 1.012308e-02 6.633846e-02 -1.472373e-01 1.698045e-02 6.547421e-02 2.381969e-02 9.836431e-03 6.012950e-01 -7.539660e-01 1.719145e-02 6.520176e-02 6.855064e-02 -1.352264e-01
3.920000e+11 -1.219782e-01 1.006681e-01 5.646173e-02 -7.271750e-03 5.877900e-01 -7.630558e-01 2.231263e-02 8.526246e-03 5.650547e-02 -7.236711e-03 -1.117498e-01 9.623492e-02 2.187574e-02 8.587332e-03 5.921071e-01 -7.625284e-01 5.940725e-01 -7.587447e-01 2.435609e-02 9.903133e-03 6.625766e-02 -1.499009e-01 1.739288e-02 6.615526e-02 2.419069e-02 9.614596e-03 5.947163e-01 -7.584355e-01 1.760518e-02 6.587641e-02 6.853240e-02 -1.377536e-01
3.955000e+11 -1.229975e-01 1.037221e-01 5.692837e-02 -8.041265e-03 5.810563e-01 -7.674224e-01 2.265855e-02 8.305394e-03 5.697299e-02 -8.006448e-03 -1.126909e-01 9.910335e-02 2.221716e-02 8.372999e-03 5.854301e-01 -7.669487e-01 5.874390e-01 -7.631433e-01 2.472757e-02 9.675542e-03 6.614481e-02 -1.525827e-01 1.781394e-02 6.683618e-02 2.455943e-02 9.385141e-03 5.880961e-01 -7.628416e-01 1.802746e-02 6.655087e-02 6.848382e-02 -1.402987e-01
3.990000e+11 -1.239805e-01 1.068144e-01 5.738611e-02 -8.822083e-03 5.742822e-01 -7.717230e-01 2.300215e-02 8.077332e-03 5.743160e-02 -8.787504e-03 -1.135979e-01 1.020077e-01 2.255633e-02 8.151567e-03 5.787119e-01 -7.713043e-01 5.807646e-01 -7.674776e-01 2.509668e-02 9.440349e-03 6.599940e-02 -1.552822e-01 1.824371e-02 6.751684e-02 2.492577e-02 9.148105e-03 5.814350e-01 -7.671837e-01 1.845837e-02 6.722499e-02 6.840440e-02 -1.428614e-01
4.025000e+11 -1.249264e-01 1.099445e-01 5.783470e-02 -9.614084e-03 5.674681e-01 -7.759569e-01 2.334328e-02 7.842099e-03 5.788106e-02 -9.579759e-03 -1.144701e-01 1.049476e-01 2.289311e-02 7.923078e-03 5.719533e-01 -7.755944e-01 5.740501e-01 -7.717471e-01 2.546326e-02 9.197594e-03 6.582092e-02 -1.579990e-01 1.868224e-02 6.819708e-02 2.528956e-02 8.903531e-03 5.747337e-01 -7.714613e-01 1.889798e-02 6.789864e-02 6.829364e-02 -1.454410e-01
4.060000e+11 -1.258343e-01 1.131118e-01 5.827392e-02 -1.041714e-02 5.606149e-01 -7.801236e-01 2.368181e-02 7.599739e-03 5.832115e-02 -1.038309e-02 -1.153065e-01 1.079223e-01 2.322737e-02 7.687574e-03 5.651549e-01 -7.798186e-01 5.672961e-01 -7.759511e-01 2.582717e-02 8.947322e-03 6.560887e-02 -1.607326e-01 1.912963e-02 6.887677e-02 2.565065e-02 8.651463e-03 5.679927e-01 -7.756737e-01 1.934635e-02 6.857166e-02 6.815106e-02 -1.480372e-01
4.095000e+11 -1.267034e-01 1.163156e-01 5.870356e-02 -1.123113e-02 5.537232e-01 -7.842224e-01 2.401760e-02 7.350299e-03 5.875166e-02 -1.119736e-02 -1.161065e-01 1.109313e-01 2.355898e-02 7.445099e-03 5.583173e-01 -7.839763e-01 5.605032e-01 -7.800892e-01 2.618827e-02 8.689580e-03 6.536275e-02 -1.634824e-01 1.958592e-02 6.955576e-02 2.600891e-02 8.391947e-03 5.612128e-01 -7.798204e-01 1.980355e-02 6.924391e-02 6.797619e-02 -1.506494e-01
4.130000e+11 -1.275328e-01 1.195555e-01 5.912339e-02 -1.205590e-02 5.467938e-01 -7.882530e-01 2.435051e-02 7.093826e-03 5.917235e-02 -1.202244e-02 -1.168691e-01 1.139741e-01 2.388778e-02 7.195701e-03 5.514413e-01 -7.880669e-01 5.536721e-01 -7.841606e-01 2.654641e-02 8.424417e-03 6.508207e-02 -1.662479e-01 2.005118e-02 7.023388e-02 2.636418e-02 8.125035e-03 5.543947e-01 -7.839009e-01 2.026963e-02 6.991524e-02 6.776855e-02 -1.532772e-01
4.165000e+11 -1.283216e-01 1.228307e-01 5.953320e-02 -1.289133e-02 5.398273e-01 -7.922146e-01 2.468041e-02 6.830374e-03 5.958302e-02 -1.285820e-02 -1.175937e-01 1.170500e-01 2.421366e-02 6.939431e-03 5.445275e-01 -7.920898e-01 5.468036e-01 -7.881650e-01 2.690145e-02 8.151885e-03 6.476635e-02 -1.690287e-01 2.052548e-02 7.091101e-02 2.671633e-02 7.850779e-03 5.475389e-01 -7.879145e-01 2.074467e-02 7.058551e-02 6.752769e-02 -1.559200e-01
4.200000e+11 -1.290691e-01 1.261406e-01 5.993276e-02 -1.373727e-02 5.328245e-01 -7.961068e-01 2.500716e-02 6.559995e-03 5.998344e-02 -1.370447e-02 -1.182793e-01 1.201585e-01 2.453648e-02 6.676340e-03 5.375767e-01 -7.960444e-01 5.398982e-01 -7.921016e-01 2.725325e-02 7.872039e-03 6.441514e-02 -1.718240e-01 2.100886e-02 7.158697e-02 2.706521e-02 7.569233e-03 5.406463e-01 -7.918607e-01 2.122870e-02 7.125455e-02 6.725317e-02 -1.585774e-01
4.235000e+11 -1.297744e-01 1.294845e-01 6.032188e-02 -1.459356e-02 5.257861e-01 -7.999290e-01 2.533062e-02 6.282745e-03 6.037340e-02 -1.456112e-02 -1.189253e-01 1.232988e-01 2.485610e-02 6.406484e-03 5.305895e-01 -7.999303e-01 5.329568e-01 -7.959700e-01 2.760166e-02 7.584937e-03 6.402796e-02 -1.746334e-01 2.150139e-02 7.226161e-02 2.741068e-02 7.280456e-03 5.337174e-01 -7.957389e-01 2.172179e-02 7.192221e-02 6.694452e-02 -1.612488e-01
4.270000e+11 -1.304366e-01 1.328617e-01 6.070032e-02 -1.546006e-02 5.187129e-01 -8.036807e-01 2.565066e-02 5.998684e-03 6.075270e-02 -1.542799e-02 -1.195308e-01 1.264703e-01 2.517240e-02 6.129919e-03 5.235667e-01 -8.037469e-01 5.259801e-01 -7.997697e-01 2.794655e-02 7.290638e-03 6.360438e-02 -1.774563e-01 2.200311e-02 7.293478e-02 2.775260e-02 6.984508e-03 5.267531e-01 -7.995486e-01 2.222398e-02 7.258834e-02 6.660133e-02 -1.639336e-01
4.305000e+11 -1.310551e-01 1.362715e-01 6.106788e-02 -1.633661e-02 5.116057e-01 -8.073613e-01 2.596716e-02 5.707873e-03 6.112110e-02 -1.630492e-02 -1.200952e-01 1.296725e-01 2.548525e-02 5.846707e-03 5.165091e-01 -8.074936e-01 5.189688e-01 -8.035000e-01 2.828779e-02 6.989205e-03 6.314395e-02 -1.802921e-01 2.251407e-02 7.360631e-02 2.809085e-02 6.681452e-03 5.197541e-01 -8.032893e-01 2.273532e-02 7.325278e-02 6.622317e-02 -1.666313e-01
4.340000e+11 -1.316290e-01 1.397133e-01 6.142436e-02 -1.722303e-02 5.044652e-01 -8.109704e-01 2.627997e-02 5.410375e-03 6.147842e-02 -1.719175e-02 -1.206177e-01 1.329045e-01 2.579451e-02 5.556908e-03 5.094173e-01 -8.111700e-01 5.119236e-01 -8.071606e-01 2.862522e-02 6.680704e-03 6.264624e-02 -1.831403e-01 2.303431e-02 7.427604e-02 2.842526e-02 6.371354e-03 5.127211e-01 -8.069605e-01 2.325585e-02 7.391537e-02 6.580962e-02 -1.693414e-01
4.375000e+11 -1.321576e-01 1.431861e-01 6.176954e-02 -1.811917e-02 4.972923e-01 -8.145074e-01 2.658897e-02 5.106258e-03 6.182444e-02 -1.808830e-02 -1.210975e-01 1.361657e-01 2.610005e-02 5.260588e-03 5.022923e-01 -8.147754e-01 5.048453e-01 -8.107508e-01 2.895872e-02 6.365201e-03 6.211085e-02 -1.860001e-01 2.356388e-02 7.494381e-02 2.875573e-02 6.054282e-03 5.056548e-01 -8.105616e-01 2.378561e-02 7.457594e-02 6.536029e-02 -1.720632e-01
4.410000e+11 -1.326401e-01 1.466894e-01 6.210323e-02 -1.902484e-02 4.900877e-01 -8.179719e-01 2.689404e-02 4.795590e-03 6.215896e-02 -1.899442e-02 -1.215341e-01 1.394553e-01 2.640177e-02 4.957815e-03 4.951347e-01 -8.183094e-01 4.977347e-01 -8.142701e-01 2.928816e-02 6.042769e-03 6.153735e-02 -1.888710e-01 2.410280e-02 7.560945e-02 2.908210e-02 5.730308e-03 4.985561e-01 -8.140921e-01 2.432464e-02 7.523433e-02 6.487478e-02 -1.747962e-01
4.445000e+11 -1.330757e-01 1.502222e-01 6.242523e-02 -1.993988e-02 4.828522e-01 -8.213633e-01 2.719504e-02 4.478441e-03 6.248177e-02 -1.990990e-02 -1.219265e-01 1.427727e-01 2.669951e-02 4.648656e-03 4.879453e-01 -8.217715e-01 4.905925e-01 -8.177181e-01 2.961339e-02 5.713479e-03 6.092537e-02 -1.917523e-01 2.465113e-02 7.627280e-02 2.940424e-02 5.399504e-03 4.914257e-01 -8.175515e-01 2.487296e-02 7.589037e-02 6.435271e-02 -1.775397e-01
4.480000e+11 -1.334637e-01 1.537838e-01 6.273533e-02 -2.086409e-02 4.755868e-01 -8.246812e-01 2.749184e-02 4.154886e-03 6.279269e-02 -2.083459e-02 -1.222743e-01 1.461171e-01 2.699318e-02 4.333185e-03 4.807250e-01 -8.251612e-01 4.834196e-01 -8.210942e-01 2.993429e-02 5.377406e-03 6.027451e-02 -1.946434e-01 2.520887e-02 7.693369e-02 2.972204e-02 5.061946e-03 4.842644e-01 -8.209393e-01 2.543060e-02 7.654390e-02 6.379371e-02 -1.802932e-01
4.515000e+11 -1.338035e-01 1.573735e-01 6.303334e-02 -2.179730e-02 4.682921e-01 -8.279252e-01 2.778434e-02 3.825001e-03 6.309152e-02 -2.176828e-02 -1.225767e-01 1.494876e-01 2.728263e-02 4.011476e-03 4.734745e-01 -8.284781e-01 4.762168e-01 -8.243980e-01 3.025072e-02 5.034630e-03 5.958442e-02 -1.975437e-01 2.577606e-02 7.759194e-02 3.003534e-02 4.717713e-03 4.770730e-01 -8.242551e-01 2.599760e-02 7.719476e-02 6.319742e-02 -1.830561e-01
4.550000e+11 -1.340943e-01 1.609903e-01 6.331908e-02 -2.273931e-02 4.609692e-01 -8.310947e-01 2.807239e-02 3.488863e-03 6.337806e-02 -2.271078e-02 -1.228330e-01 1.528836e-01 2.756776e-02 3.683605e-03 4.661947e-01 -8.317215e-01 4.689849e-01 -8.276291e-01 3.056257e-02 4.685230e-03 5.885472e-02 -2.004524e-01 2.635273e-02 7.824739e-02 3.034403e-02 4.366886e-03 4.698524e-01 -8.274984e-01 2.657397e-02 7.784276e-02 6.256349e-02 -1.858277e-01
4.585000e+11 -1.343354e-01 1.646334e-01 6.359235e-02 -2.368992e-02 4.536187e-01 -8.341893e-01 2.835589e-02 3.146555e-03 6.365213e-02 -2.366191e-02 -1.230426e-01 1.563042e-01 2.784844e-02 3.349651e-03 4.588865e-01 -8.348911e-01 4.617247e-01 -8.307869e-01 3.086970e-02 4.329290e-03 5.808508e-02 -2.033690e-01 2.693889e-02 7.889986e-02 3.064798e-02 4.009548e-03 4.626032e-01 -8.306686e-01 2.715972e-02 7.848774e-02 6.189159e-02 -1.886073e-01
4.620000e+11 -1.345263e-01 1.683019e-01 6.385296e-02 -2.464894e-02 4.462417e-01 -8.372086e-01 2.863470e-02 2.798158e-03 6.391353e-02 -2.462146e-02 -1.232050e-01 1.597486e-01 2.812455e-02 3.009695e-03 4.515506e-01 -8.379865e-01 4.544370e-01 -8.338710e-01 3.117198e-02 3.966894e-03 5.727516e-02 -2.062926e-01 2.753455e-02 7.954917e-02 3.094707e-02 3.645785e-03 4.553265e-01 -8.337654e-01 2.775488e-02 7.912953e-02 6.118139e-02 -1.913944e-01
4.655000e+11 -1.346661e-01 1.719950e-01 6.410075e-02 -2.561615e-02 4.388389e-01 -8.401521e-01 2.890872e-02 2.443759e-03 6.416210e-02 -2.558922e-02 -1.233194e-01 1.632160e-01 2.839599e-02 2.663820e-03 4.441880e-01 -8.410071e-01 4.471228e-01 -8.368809e-01 3.146930e-02 3.598132e-03 5.642465e-02 -2.092228e-01 2.813973e-02 8.019517e-02 3.124116e-02 3.275685e-03 4.480230e-01 -8.367884e-01 2.835945e-02 7.976795e-02 6.043259e-02 -1.941883e-01
4.690000e+11 -1.347544e-01 1.757119e-01 6.433552e-02 -2.659136e-02 4.314114e-01 -8.430195e-01 2.917783e-02 2.083445e-03 6.439765e-02 -2.656498e-02 -1.233853e-01 1.667055e-01 2.866262e-02 2.312114e-03 4.367995e-01 -8.439526e-01 4.397829e-01 -8.398164e-01 3.176152e-02 3.223091e-03 5.553324e-02 -2.121586e-01 2.875444e-02 8.083765e-02 3.153014e-02 2.899339e-03 4.406936e-01 -8.397370e-01 2.897344e-02 8.040284e-02 5.964489e-02 -1.969883e-01
4.725000e+11 -1.347904e-01 1.794514e-01 6.455711e-02 -2.757435e-02 4.239599e-01 -8.458104e-01 2.944191e-02 1.717305e-03 6.462000e-02 -2.754854e-02 -1.234022e-01 1.702164e-01 2.892435e-02 1.954662e-03 4.293860e-01 -8.468225e-01 4.324181e-01 -8.426768e-01 3.204854e-02 2.841867e-03 5.460064e-02 -2.150994e-01 2.937867e-02 8.147646e-02 3.181389e-02 2.516840e-03 4.333392e-01 -8.426108e-01 2.959685e-02 8.103400e-02 5.881799e-02 -1.997937e-01
4.760000e+11 -1.347737e-01 1.832129e-01 6.476534e-02 -2.856489e-02 4.164854e-01 -8.485243e-01 2.970086e-02 1.345432e-03 6.482899e-02 -2.853968e-02 -1.233694e-01 1.737476e-01 2.918106e-02 1.591556e-03 4.219484e-01 -8.496164e-01 4.250293e-01 -8.454618e-01 3.233022e-02 2.454553e-03 5.362658e-02 -2.180446e-01 3.001243e-02 8.211141e-02 3.209229e-02 2.128283e-03 4.259606e-01 -8.454095e-01 3.022968e-02 8.166128e-02 5.795164e-02 -2.026039e-01
4.795000e+11 -1.347036e-01 1.869952e-01 6.496005e-02 -2.956278e-02 4.089888e-01 -8.511609e-01 2.995455e-02 9.679212e-04 6.502446e-02 -2.953817e-02 -1.232864e-01 1.772984e-01 2.943264e-02 1.222887e-03 4.144876e-01 -8.523340e-01 4.176175e-01 -8.481711e-01 3.260646e-02 2.061246e-03 5.261079e-02 -2.209933e-01 3.065572e-02 8.274233e-02 3.236523e-02 1.733766e-03 4.185588e-01 -8.481327e-01 3.087192e-02 8.228448e-02 5.704557e-02 -2.054181e-01
4.830000e+11 -1.345795e-01 1.907976e-01 6.514107e-02 -3.056778e-02 4.014711e-01 -8.537198e-01 3.020288e-02 5.848679e-04 6.520622e-02 -3.054378e-02 -1.231527e-01 1.808679e-01 2.967899e-02 8.487505e-04 4.070045e-01 -8.549748e-01 4.101836e-01 -8.508043e-01 3.287714e-02 1.662047e-03 5.155302e-02 -2.239449e-01 3.130852e-02 8.336902e-02 3.263258e-02 1.333389e-03 4.111346e-01 -8.507800e-01 3.152358e-02 8.290344e-02 5.609955e-02 -2.082357e-01
4.865000e+11 -1.344010e-01 1.946189e-01 6.530826e-02 -3.157966e-02 3.939332e-01 -8.562008e-01 3.044574e-02 1.963712e-04 6.537414e-02 -3.155630e-02 -1.229678e-01 1.844550e-01 2.991999e-02 4.692424e-04 3.995000e-01 -8.575385e-01 4.027284e-01 -8.533609e-01 3.314214e-02 1.257056e-03 5.045305e-02 -2.268985e-01 3.197083e-02 8.399132e-02 3.289424e-02 9.272546e-04 4.036889e-01 -8.533509e-01 3.218462e-02 8.351797e-02 5.511333e-02 -2.110560e-01
4.900000e+11 -1.341675e-01 1.984582e-01 6.546144e-02 -3.259820e-02 3.863760e-01 -8.586033e-01 3.068304e-02 -1.974682e-04 6.552805e-02 -3.257548e-02 -1.227313e-01 1.880590e-01 3.015555e-02 8.446144e-05 3.919751e-01 -8.600247e-01 3.952529e-01 -8.558406e-01 3.340137e-02 8.463787e-04 4.931065e-02 -2.298535e-01 3.264262e-02 8.460905e-02 3.315010e-02 5.154663e-04 3.962228e-01 -8.558452e-01 3.285504e-02 8.412790e-02 5.408670e-02 -2.138783e-01
4.935000e+11 -1.338785e-01 2.023146e-01 6.560048e-02 -3.362316e-02 3.788006e-01 -8.609272e-01 3.091466e-02 -5.965473e-04 6.566780e-02 -3.360110e-02 -1.224425e-01 1.916789e-01 3.038557e-02 -3.054919e-04 3.844308e-01 -8.624332e-01 3.877580e-01 -8.582432e-01 3.365469e-02 4.301204e-04 4.812563e-02 -2.328091e-01 3.332388e-02 8.522201e-02 3.340004e-02 9.813118e-05 3.887370e-01 -8.582625e-01 3.353481e-02 8.473305e-02 5.301947e-02 -2.167018e-01
4.970000e+11 -1.335335e-01 2.061871e-01 6.572523e-02 -3.465428e-02 3.712078e-01 -8.631721e-01 3.114050e-02 -1.000761e-03 6.579325e-02 -3.463290e-02 -1.221012e-01 1.953137e-01 3.060994e-02 -7.005149e-04 3.768679e-01 -8.647634e-01 3.802447e-01 -8.605682e-01 3.390202e-02 8.389701e-06 4.689779e-02 -2.357645e-01 3.401459e-02 8.583004e-02 3.364397e-02 -3.246421e-04 3.812326e-01 -8.606025e-01 3.422392e-02 8.533323e-02 5.191144e-02 -2.195257e-01
5.005000e+11 -1.331321e-01 2.100745e-01 6.583554e-02 -3.569135e-02 3.635988e-01 -8.653377e-01 3.136047e-02 -1.410003e-03 6.590426e-02 -3.567064e-02 -1.217068e-01 1.989626e-01 3.082856e-02 -1.100503e-03 3.692874e-01 -8.670153e-01 3.727139e-01 -8.628154e-01 3.414324e-02 -4.187031e-04 4.562696e-02 -2.387190e-01 3.471471e-02 8.643294e-02 3.388177e-02 -7.527425e-04 3.737105e-01 -8.628649e-01 3.492232e-02 8.592828e-02 5.076245e-02 -2.223495e-01
5.040000e+11 -1.326738e-01 2.139760e-01 6.593129e-02 -3.673409e-02 3.559743e-01 -8.674238e-01 3.157447e-02 -1.824165e-03 6.600069e-02 -3.671409e-02 -1.212589e-01 2.026244e-01 3.104135e-02 -1.505350e-03 3.616903e-01 -8.691883e-01 3.651667e-01 -8.649844e-01 3.437826e-02 -8.510453e-04 4.431300e-02 -2.416717e-01 3.542421e-02 8.703055e-02 3.411335e-02 -1.186057e-03 3.661717e-01 -8.650493e-01 3.562999e-02 8.651800e-02 4.957234e-02 -2.251723e-01
5.075000e+11 -1.321582e-01 2.178904e-01 6.601233e-02 -3.778227e-02 3.483356e-01 -8.694300e-01 3.178240e-02 -2.243134e-03 6.608241e-02 -3.776298e-02 -1.207572e-01 2.062983e-01 3.124820e-02 -1.914947e-03 3.540777e-01 -8.712824e-01 3.576038e-01 -8.670750e-01 3.460697e-02 -1.288523e-03 4.295576e-02 -2.446220e-01 3.614306e-02 8.762267e-02 3.433860e-02 -1.624472e-03 3.586171e-01 -8.671554e-01 3.634690e-02 8.710223e-02 4.834097e-02 -2.279934e-01
5.110000e+11 -1.315850e-01 2.218168e-01 6.607855e-02 -3.883563e-02 3.406835e-01 -8.713562e-01 3.198417e-02 -2.666800e-03 6.614930e-02 -3.881706e-02 -1.202013e-01 2.099833e-01 3.144904e-02 -2.329184e-03 3.464504e-01 -8.732971e-01 3.500265e-01 -8.690868e-01 3.482927e-02 -1.731018e-03 4.155512e-02 -2.475689e-01 3.687122e-02 8.820912e-02 3.455743e-02 -2.067868e-03 3.510477e-01 -8.691831e-01 3.707299e-02 8.768077e-02 4.706821e-02 -2.308121e-01
5.145000e+11 -1.309537e-01 2.257540e-01 6.612983e-02 -3.989392e-02 3.330190e-01 -8.732021e-01 3.217969e-02 -3.095047e-03 6.620122e-02 -3.987608e-02 -1.195908e-01 2.136783e-01 3.164376e-02 -2.747950e-03 3.388095e-01 -8.752322e-01 3.424356e-01 -8.710198e-01 3.504508e-02 -2.178414e-03 4.011097e-02 -2.505118e-01 3.760863e-02 8.878972e-02 3.476975e-02 -2.516129e-03 3.434645e-01 -8.711320e-01 3.780822e-02 8.825346e-02 4.575396e-02 -2.336276e-01
5.180000e+11 -1.302640e-01 2.297010e-01 6.616603e-02 -4.095686e-02 3.253433e-01 -8.749676e-01 3.236888e-02 -3.527759e-03 6.623807e-02 -4.093978e-02 -1.189254e-01 2.173824e-01 3.183228e-02 -3.171129e-03 3.311559e-01 -8.770876e-01 3.348321e-01 -8.728735e-01 3.525429e-02 -2.630589e-03 3.862323e-02 -2.534497e-01 3.835526e-02 8.936430e-02 3.497545e-02 -2.969132e-03 3.358685e-01 -8.730019e-01 3.855255e-02 8.882011e-02 4.439811e-02 -2.364391e-01
5.215000e+11 -1.295155e-01 2.336568e-01 6.618707e-02 -4.202421e-02 3.176573e-01 -8.766522e-01 3.255165e-02 -3.964818e-03 6.625973e-02 -4.200789e-02 -1.182048e-01 2.210946e-01 3.201452e-02 -3.598608e-03 3.234908e-01 -8.788629e-01 3.272170e-01 -8.746479e-01 3.545681e-02 -3.087422e-03 3.709182e-02 -2.563820e-01 3.911105e-02 8.993267e-02 3.517446e-02 -3.426756e-03 3.282607e-01 -8.747925e-01 3.930592e-02 8.938054e-02 4.300059e-02 -2.392459e-01
5.250000e+11 -1.287080e-01 2.376202e-01 6.619282e-02 -4.309570e-02 3.099620e-01 -8.782561e-01 3.272791e-02 -4.406104e-03 6.626610e-02 -4.308015e-02 -1.174288e-01 2.248138e-01 3.219039e-02 -4.030267e-03 3.158151e-01 -8.805579e-01 3.195914e-01 -8.763426e-01 3.565257e-02 -3.548788e-03 3.551670e-02 -2.593079e-01 3.987594e-02 9.049465e-02 3.536667e-02 -3.888876e-03 3.206420e-01 -8.765037e-01 4.006827e-02 8.993458e-02 4.156135e-02 -2.420472e-01
5.285000e+11 -1.278412e-01 2.415901e-01 6.618319e-02 -4.417105e-02 3.022586e-01 -8.797788e-01 3.289758e-02 -4.851497e-03 6.625707e-02 -4.415629e-02 -1.165969e-01 2.285390e-01 3.235982e-02 -4.465990e-03 3.081298e-01 -8.821726e-01 3.119563e-01 -8.779575e-01 3.584146e-02 -4.014561e-03 3.389781e-02 -2.622264e-01 4.064987e-02 9.105006e-02 3.555202e-02 -4.355365e-03 3.130137e-01 -8.781353e-01 4.083954e-02 9.048205e-02 4.008032e-02 -2.448423e-01
5.320000e+11 -1.269148e-01 2.455655e-01 6.615808e-02 -4.525000e-02 2.945480e-01 -8.812204e-01 3.306059e-02 -5.300872e-03 6.623256e-02 -4.523603e-02 -1.157091e-01 2.322692e-01 3.252273e-02 -4.905655e-03 3.004361e-01 -8.837067e-01 3.043126e-01 -8.794924e-01 3.602342e-02 -4.484615e-03 3.223514e-02 -2.651368e-01 4.143277e-02 9.159872e-02 3.573041e-02 -4.826097e-03 3.053765e-01 -8.796871e-01 4.161967e-02 9.102277e-02 3.855750e-02 -2.476304e-01
5.355000e+11 -1.259285e-01 2.495453e-01 6.611740e-02 -4.633227e-02 2.868313e-01 -8.825806e-01 3.321686e-02 -5.754106e-03 6.619246e-02 -4.631911e-02 -1.147650e-01 2.360033e-01 3.267904e-02 -5.349141e-03 2.927348e-01 -8.851599e-01 2.966615e-01 -8.809472e-01 3.619835e-02 -4.958819e-03 3.052869e-02 -2.680384e-01 4.222458e-02 9.214046e-02 3.590176e-02 -5.300941e-03 2.977316e-01 -8.811588e-01 4.240858e-02 9.155656e-02 3.699285e-02 -2.504106e-01
5.390000e+11 -1.248822e-01 2.535283e-01 6.606107e-02 -4.741759e-02 2.791096e-01 -8.838593e-01 3.336632e-02 -6.211073e-03 6.613671e-02 -4.740524e-02 -1.137645e-01 2.397403e-01 3.282869e-02 -5.796324e-03 2.850271e-01 -8.865323e-01 2.890040e-01 -8.823217e-01 3.636619e-02 -5.437044e-03 2.877847e-02 -2.709302e-01 4.302522e-02 9.267509e-02 3.606600e-02 -5.779767e-03 2.900800e-01 -8.825505e-01 4.320621e-02 9.208325e-02 3.538639e-02 -2.531824e-01
5.425000e+11 -1.237757e-01 2.575134e-01 6.598901e-02 -4.850567e-02 2.713839e-01 -8.850565e-01 3.350889e-02 -6.671645e-03 6.606520e-02 -4.849416e-02 -1.127074e-01 2.434792e-01 3.297160e-02 -6.247079e-03 2.773141e-01 -8.878237e-01 2.813411e-01 -8.836158e-01 3.652685e-02 -5.919157e-03 2.698452e-02 -2.738115e-01 4.383461e-02 9.320245e-02 3.622306e-02 -6.262441e-03 2.824228e-01 -8.838618e-01 4.401246e-02 9.260268e-02 3.373814e-02 -2.559447e-01
5.460000e+11 -1.226087e-01 2.614996e-01 6.590115e-02 -4.959625e-02 2.636553e-01 -8.861721e-01 3.364452e-02 -7.135693e-03 6.597788e-02 -4.958558e-02 -1.115935e-01 2.472189e-01 3.310770e-02 -6.701280e-03 2.695967e-01 -8.890339e-01 2.736738e-01 -8.848294e-01 3.668026e-02 -6.405023e-03 2.514687e-02 -2.766814e-01 4.465268e-02 9.372235e-02 3.637285e-02 -6.748831e-03 2.747610e-01 -8.850929e-01 4.482727e-02 9.311465e-02 3.204813e-02 -2.586970e-01
5.495000e+11 -1.213812e-01 2.654856e-01 6.579741e-02 -5.068904e-02 2.559249e-01 -8.872060e-01 3.377313e-02 -7.603087e-03 6.587468e-02 -5.067922e-02 -1.104227e-01 2.509582e-01 3.323693e-02 -7.158800e-03 2.618761e-01 -8.901630e-01 2.660033e-01 -8.859624e-01 3.682636e-02 -6.894510e-03 2.326561e-02 -2.795392e-01 4.547933e-02 9.423462e-02 3.651532e-02 -7.238800e-03 2.670956e-01 -8.862434e-01 4.565054e-02 9.361901e-02 3.031642e-02 -2.614384e-01
5.530000e+11 -1.200930e-01 2.694703e-01 6.567774e-02 -5.178375e-02 2.481937e-01 -8.881582e-01 3.389466e-02 -8.073696e-03 6.575553e-02 -5.177479e-02 -1.091949e-01 2.546963e-01 3.335923e-02 -7.619510e-03 2.541532e-01 -8.912107e-01 2.583305e-01 -8.870148e-01 3.696507e-02 -7.387478e-03 2.134082e-02 -2.823840e-01 4.631447e-02 9.473909e-02 3.665039e-02 -7.732212e-03 2.594277e-01 -8.873134e-01 4.648219e-02 9.411558e-02 2.854308e-02 -2.641681e-01
5.565000e+11 -1.187441e-01 2.734527e-01 6.554208e-02 -5.288011e-02 2.404629e-01 -8.890286e-01 3.400905e-02 -8.547387e-03 6.562038e-02 -5.287201e-02 -1.079101e-01 2.584319e-01 3.347455e-02 -8.083281e-03 2.464293e-01 -8.921771e-01 2.506566e-01 -8.879864e-01 3.709633e-02 -7.883791e-03 1.937259e-02 -2.852149e-01 4.715802e-02 9.523559e-02 3.677800e-02 -8.228928e-03 2.517583e-01 -8.883029e-01 4.732211e-02 9.460420e-02 2.672820e-02 -2.668853e-01
5.600000e+11 -1.173343e-01 2.774315e-01 6.539039e-02 -5.397782e-02 2.327334e-01 -8.898172e-01 3.411624e-02 -9.024027e-03 6.546917e-02 -5.397060e-02 -1.065680e-01 2.621641e-01 3.358281e-02 -8.549980e-03 2.387053e-01 -8.930621e-01 2.429826e-01 -8.888772e-01 3.722009e-02 -8.383310e-03 1.736105e-02 -2.880313e-01 4.800987e-02 9.572395e-02 3.689809e-02 -8.728810e-03 2.440886e-01 -8.892117e-01 4.817022e-02 9.508469e-02 2.487188e-02 -2.695894e-01
5.635000e+11 -1.158636e-01 2.814057e-01 6.522261e-02 -5.507659e-02 2.250065e-01 -8.905241e-01 3.421619e-02 -9.503480e-03 6.530187e-02 -5.507026e-02 -1.051688e-01 2.658917e-01 3.368398e-02 -9.019476e-03 2.309824e-01 -8.938658e-01 2.353095e-01 -8.896873e-01 3.733627e-02 -8.885895e-03 1.530634e-02 -2.908323e-01 4.886992e-02 9.620400e-02 3.701061e-02 -9.231716e-03 2.364196e-01 -8.900398e-01 4.902641e-02 9.555689e-02 2.297425e-02 -2.722794e-01
5.670000e+11 -1.143320e-01 2.853741e-01 6.503871e-02 -5.617614e-02 2.172832e-01 -8.911493e-01 3.430884e-02 -9.985610e-03 6.511843e-02 -5.617071e-02 -1.037123e-01 2.696137e-01 3.377799e-02 -9.491635e-03 2.232616e-01 -8.945880e-01 2.276385e-01 -8.904166e-01 3.744484e-02 -9.391403e-03 1.320861e-02 -2.936170e-01 4.973806e-02 9.667557e-02 3.711549e-02 -9.737505e-03 2.287524e-01 -8.907873e-01 4.989057e-02 9.602064e-02 2.103544e-02 -2.749546e-01
5.705000e+11 -1.127394e-01 2.893355e-01 6.483865e-02 -5.727618e-02 2.095645e-01 -8.916927e-01 3.439413e-02 -1.047028e-02 6.491883e-02 -5.727165e-02 -1.021986e-01 2.733290e-01 3.386480e-02 -9.966324e-03 2.155440e-01 -8.952289e-01 2.199707e-01 -8.910652e-01 3.754573e-02 -9.899693e-03 1.106804e-02 -2.963846e-01 5.061419e-02 9.713851e-02 3.721269e-02 -1.024603e-02 2.210880e-01 -8.914541e-01 5.076259e-02 9.647577e-02 1.905561e-02 -2.776143e-01
5.740000e+11 -1.110860e-01 2.932888e-01 6.462242e-02 -5.837641e-02 2.018516e-01 -8.921546e-01 3.447203e-02 -1.095735e-02 6.470304e-02 -5.837280e-02 -1.006277e-01 2.770365e-01 3.394437e-02 -1.044341e-02 2.078307e-01 -8.957885e-01 2.123070e-01 -8.916331e-01 3.763889e-02 -1.041062e-02 8.884822e-03 -2.991344e-01 5.149819e-02 9.759264e-02 3.730216e-02 -1.075716e-02 2.134275e-01 -8.920404e-01 5.164236e-02 9.692213e-02 1.703493e-02 -2.802577e-01
5.775000e+11 -1.093718e-01 2.972329e-01 6.438999e-02 -5.947655e-02 1.941456e-01 -8.925350e-01 3.454250e-02 -1.144669e-02 6.447103e-02 -5.947386e-02 -9.899961e-02 2.807352e-01 3.401665e-02 -1.092275e-02 2.001228e-01 -8.962668e-01 2.046487e-01 -8.921203e-01 3.772428e-02 -1.092404e-02 6.659165e-03 -3.018655e-01 5.238994e-02 9.803781e-02 3.738385e-02 -1.127074e-02 2.057720e-01 -8.925461e-01 5.252977e-02 9.735955e-02 1.497359e-02 -2.828840e-01
5.810000e+11 -1.075968e-01 3.011666e-01 6.414135e-02 -6.057630e-02 1.864476e-01 -8.928340e-01 3.460548e-02 -1.193815e-02 6.422279e-02 -6.057453e-02 -9.731449e-02 2.844239e-01 3.408161e-02 -1.140421e-02 1.924214e-01 -8.966640e-01 1.969966e-01 -8.925269e-01 3.780186e-02 -1.143981e-02 4.391298e-03 -3.045772e-01 5.328932e-02 9.847386e-02 3.745771e-02 -1.178662e-02 1.981226e-01 -8.929713e-01 5.342469e-02 9.778789e-02 1.287181e-02 -2.854924e-01
5.845000e+11 -1.057611e-01 3.050888e-01 6.387649e-02 -6.167537e-02 1.787586e-01 -8.930516e-01 3.466095e-02 -1.243160e-02 6.395832e-02 -6.167454e-02 -9.557239e-02 2.881016e-01 3.413920e-02 -1.188766e-02 1.847275e-01 -8.969800e-01 1.893521e-01 -8.928531e-01 3.787158e-02 -1.195778e-02 2.081464e-03 -3.072686e-01 5.419621e-02 9.890063e-02 3.752372e-02 -1.230467e-02 1.904803e-01 -8.933161e-01 5.432699e-02 9.820698e-02 1.072980e-02 -2.880822e-01
5.880000e+11 -1.038649e-01 3.089983e-01 6.359541e-02 -6.277346e-02 1.710798e-01 -8.931882e-01 3.470887e-02 -1.292689e-02 6.367762e-02 -6.277358e-02 -9.377344e-02 2.917673e-01 3.418939e-02 -1.237296e-02 1.770423e-01 -8.972151e-01 1.817161e-01 -8.930989e-01 3.793340e-02 -1.247781e-02 -2.700712e-04 -3.099389e-01 5.511047e-02 9.931798e-02 3.758182e-02 -1.282473e-02 1.828463e-01 -8.935806e-01 5.523655e-02 9.861668e-02 8.547802e-03 -2.906527e-01
5.915000e+11 -1.019083e-01 3.128940e-01 6.329811e-02 -6.387028e-02 1.634123e-01 -8.932437e-01 3.474921e-02 -1.342388e-02 6.338069e-02 -6.387135e-02 -9.191777e-02 2.954198e-01 3.423215e-02 -1.285996e-02 1.693669e-01 -8.973694e-01 1.740896e-01 -8.932645e-01 3.798730e-02 -1.299975e-02 -2.663028e-03 -3.125874e-01 5.603198e-02 9.972574e-02 3.763199e-02 -1.334666e-02 1.752216e-01 -8.937650e-01 5.615323e-02 9.901684e-02 6.326077e-03 -2.932030e-01
5.950000e+11 -9.989152e-02 3.167747e-01 6.298461e-02 -6.496555e-02 1.557571e-01 -8.932185e-01 3.478194e-02 -1.392243e-02 6.306753e-02 -6.496757e-02 -9.000556e-02 2.990581e-01 3.426746e-02 -1.334853e-02 1.617023e-01 -8.974430e-01 1.664739e-01 -8.933501e-01 3.803324e-02 -1.352345e-02 -5.097109e-03 -3.152132e-01 5.696060e-02 1.001238e-01 3.767420e-02 -1.387030e-02 1.676073e-01 -8.938694e-01 5.707690e-02 9.940731e-02 4.064899e-03 -2.957324e-01
5.985000e+11 -9.781470e-02 3.206394e-01 6.265491e-02 -6.605895e-02 1.481153e-01 -8.931127e-01 3.480704e-02 -1.442241e-02 6.273817e-02 -6.606195e-02 -8.803699e-02 3.026811e-01 3.429528e-02 -1.383853e-02 1.540496e-01 -8.974361e-01 1.588700e-01 -8.933557e-01 3.807120e-02 -1.404876e-02 -7.571996e-03 -3.178157e-01 5.789618e-02 1.005119e-01 3.770842e-02 -1.439551e-02 1.600045e-01 -8.938939e-01 5.800743e-02 9.978795e-02 1.764558e-03 -2.982402e-01
6.020000e+11 -9.567810e-02 3.244869e-01 6.230906e-02 -6.715022e-02 1.404881e-01 -8.929266e-01 3.482448e-02 -1.492365e-02 6.239264e-02 -6.715418e-02 -8.601227e-02 3.062878e-01 3.431560e-02 -1.432982e-02 1.464099e-01 -8.973489e-01 1.512789e-01 -8.932817e-01 3.810114e-02 -1.457553e-02 -1.008736e-02 -3.203940e-01 5.883859e-02 1.008901e-01 3.773462e-02 -1.492215e-02 1.524142e-01 -8.938389e-01 5.894466e-02 1.001586e-01 -5.746401e-04 -3.007256e-01
6.055000e+11 -9.348195e-02 3.283160e-01 6.194707e-02 -6.823904e-02 1.328764e-01 -8.926603e-01 3.483425e-02 -1.542603e-02 6.203095e-02 -6.824397e-02 -8.393165e-02 3.098771e-01 3.432840e-02 -1.482226e-02 1.387844e-01 -8.971816e-01 1.437018e-01 -8.931281e-01 3.812304e-02 -1.510362e-02 -1.264285e-02 -3.229473e-01 5.978767e-02 1.012581e-01 3.775279e-02 -1.545005e-02 1.448376e-01 -8.937043e-01 5.988845e-02 1.005192e-01 -2.952371e-03 -3.031879e-01
6.090000e+11 -9.122654e-02 3.321258e-01 6.156898e-02 -6.932512e-02 1.252815e-01 -8.923142e-01 3.483633e-02 -1.592940e-02 6.165315e-02 -6.933104e-02 -8.179538e-02 3.134480e-01 3.433365e-02 -1.531571e-02 1.311740e-01 -8.969345e-01 1.361396e-01 -8.928953e-01 3.813690e-02 -1.563287e-02 -1.523809e-02 -3.254749e-01 6.074329e-02 1.016158e-01 3.776290e-02 -1.597908e-02 1.372757e-01 -8.934906e-01 6.083865e-02 1.008695e-01 -5.368294e-03 -3.056264e-01
6.125000e+11 -8.891215e-02 3.359149e-01 6.117483e-02 -7.040819e-02 1.177044e-01 -8.918885e-01 3.483070e-02 -1.643361e-02 6.125928e-02 -7.041510e-02 -7.960373e-02 3.169993e-01 3.433136e-02 -1.581003e-02 1.235800e-01 -8.966078e-01 1.285936e-01 -8.925836e-01 3.814268e-02 -1.616314e-02 -1.787271e-02 -3.279761e-01 6.170528e-02 1.019630e-01 3.776494e-02 -1.650908e-02 1.297296e-01 -8.931979e-01 6.179511e-02 1.012094e-01 -7.822056e-03 -3.080404e-01
6.160000e+11 -8.653911e-02 3.396824e-01 6.076468e-02 -7.148794e-02 1.101462e-01 -8.913836e-01 3.481736e-02 -1.693852e-02 6.084939e-02 -7.149584e-02 -7.735703e-02 3.205302e-01 3.432149e-02 -1.630507e-02 1.160032e-01 -8.962018e-01 1.210647e-01 -8.921930e-01 3.814039e-02 -1.669427e-02 -2.054631e-02 -3.304500e-01 6.267348e-02 1.022997e-01 3.775890e-02 -1.703990e-02 1.222003e-01 -8.928265e-01 6.275768e-02 1.015388e-01 -1.031328e-02 -3.104291e-01
6.195000e+11 -8.410777e-02 3.434272e-01 6.033857e-02 -7.256409e-02 1.026078e-01 -8.907997e-01 3.479630e-02 -1.744400e-02 6.042352e-02 -7.257298e-02 -7.505558e-02 3.240394e-01 3.430406e-02 -1.680070e-02 1.084449e-01 -8.957168e-01 1.135540e-01 -8.917241e-01 3.813000e-02 -1.722612e-02 -2.325846e-02 -3.328961e-01 6.364775e-02 1.026257e-01 3.774477e-02 -1.757139e-02 1.146890e-01 -8.923767e-01 6.372619e-02 1.018576e-01 -1.284159e-02 -3.127919e-01
6.230000e+11 -8.161848e-02 3.471481e-01 5.989657e-02 -7.363635e-02 9.509053e-02 -8.901372e-01 3.476751e-02 -1.794989e-02 5.998175e-02 -7.364624e-02 -7.269975e-02 3.275261e-01 3.427905e-02 -1.729678e-02 1.009062e-01 -8.951530e-01 1.060627e-01 -8.911770e-01 3.811152e-02 -1.775853e-02 -2.600873e-02 -3.353134e-01 6.462791e-02 1.029409e-01 3.772255e-02 -1.810340e-02 1.071966e-01 -8.918488e-01 6.470049e-02 1.021657e-01 -1.540657e-02 -3.151279e-01
6.265000e+11 -7.907165e-02 3.508441e-01 5.943874e-02 -7.470443e-02 8.759530e-02 -8.893965e-01 3.473100e-02 -1.845605e-02 5.952413e-02 -7.471533e-02 -7.028990e-02 3.309892e-01 3.424646e-02 -1.779316e-02 9.338793e-02 -8.945109e-01 9.859162e-02 -8.905522e-01 3.808493e-02 -1.829136e-02 -2.879669e-02 -3.377014e-01 6.561380e-02 1.032452e-01 3.769222e-02 -1.863579e-02 9.972427e-02 -8.912432e-01 6.568041e-02 1.024628e-01 -1.800781e-02 -3.174367e-01
6.300000e+11 -7.646768e-02 3.545141e-01 5.896516e-02 -7.576804e-02 8.012319e-02 -8.885780e-01 3.468676e-02 -1.896234e-02 5.905074e-02 -7.577995e-02 -6.782642e-02 3.344277e-01 3.420629e-02 -1.828971e-02 8.589133e-02 -8.937908e-01 9.114198e-02 -8.898499e-01 3.805025e-02 -1.882445e-02 -3.162185e-02 -3.400593e-01 6.660526e-02 1.035384e-01 3.765380e-02 -1.916840e-02 9.227304e-02 -8.905601e-01 6.666577e-02 1.027490e-01 -2.064488e-02 -3.197174e-01
6.335000e+11 -7.380702e-02 3.581570e-01 5.847590e-02 -7.682691e-02 7.267526e-02 -8.876820e-01 3.463480e-02 -1.946861e-02 5.856166e-02 -7.683984e-02 -6.530973e-02 3.378405e-01 3.415856e-02 -1.878628e-02 7.841742e-02 -8.929931e-01 8.371478e-02 -8.890705e-01 3.800747e-02 -1.935766e-02 -3.448374e-02 -3.423864e-01 6.760210e-02 1.038205e-01 3.760729e-02 -1.970108e-02 8.484396e-02 -8.897999e-01 6.765642e-02 1.030240e-01 -2.331733e-02 -3.219695e-01
6.370000e+11 -7.109013e-02 3.617718e-01 5.797105e-02 -7.788075e-02 6.525256e-02 -8.867090e-01 3.457514e-02 -1.997473e-02 5.805698e-02 -7.789469e-02 -6.274027e-02 3.412268e-01 3.410325e-02 -1.928273e-02 7.096724e-02 -8.921180e-01 7.631107e-02 -8.882144e-01 3.795660e-02 -1.989084e-02 -3.738187e-02 -3.446821e-01 6.860417e-02 1.040912e-01 3.755268e-02 -2.023369e-02 7.743806e-02 -8.889630e-01 6.865218e-02 1.032879e-01 -2.602469e-02 -3.241921e-01
6.405000e+11 -6.831749e-02 3.653574e-01 5.745070e-02 -7.892929e-02 5.785613e-02 -8.856593e-01 3.450777e-02 -2.048055e-02 5.753678e-02 -7.894425e-02 -6.011849e-02 3.445855e-01 3.404040e-02 -1.977893e-02 6.354183e-02 -8.911662e-01 6.893187e-02 -8.872821e-01 3.789765e-02 -2.042383e-02 -4.031573e-02 -3.469456e-01 6.961128e-02 1.043506e-01 3.749000e-02 -2.076607e-02 7.005637e-02 -8.880499e-01 6.965287e-02 1.035404e-01 -2.876648e-02 -3.263848e-01
6.440000e+11 -6.548961e-02 3.689129e-01 5.691495e-02 -7.997224e-02 5.048699e-02 -8.845336e-01 3.443271e-02 -2.098593e-02 5.700116e-02 -7.998822e-02 -5.744487e-02 3.479156e-01 3.397000e-02 -2.027474e-02 5.614224e-02 -8.901380e-01 6.157822e-02 -8.862739e-01 3.783063e-02 -2.095650e-02 -4.328478e-02 -3.491763e-01 7.062325e-02 1.045985e-01 3.741926e-02 -2.129807e-02 6.269994e-02 -8.870608e-01 7.065832e-02 1.037816e-01 -3.154223e-02 -3.285469e-01
6.475000e+11 -6.260701e-02 3.724371e-01 5.636389e-02 -8.100933e-02 4.314617e-02 -8.833322e-01 3.434999e-02 -2.149073e-02 5.645022e-02 -8.102633e-02 -5.471991e-02 3.512162e-01 3.389208e-02 -2.077002e-02 4.876949e-02 -8.890337e-01 5.425115e-02 -8.851903e-01 3.775556e-02 -2.148869e-02 -4.628850e-02 -3.513735e-01 7.163990e-02 1.048348e-01 3.734047e-02 -2.182956e-02 5.536977e-02 -8.859964e-01 7.166835e-02 1.040112e-01 -3.435141e-02 -3.306776e-01
6.510000e+11 -5.967024e-02 3.759291e-01 5.579764e-02 -8.204028e-02 3.583469e-02 -8.820556e-01 3.425962e-02 -2.199480e-02 5.588408e-02 -8.205831e-02 -5.194413e-02 3.544864e-01 3.380664e-02 -2.126463e-02 4.142461e-02 -8.878541e-01 4.695165e-02 -8.840318e-01 3.767245e-02 -2.202025e-02 -4.932632e-02 -3.535366e-01 7.266104e-02 1.050594e-01 3.725365e-02 -2.236038e-02 4.806689e-02 -8.848570e-01 7.268277e-02 1.042292e-01 -3.719352e-02 -3.327765e-01
6.545000e+11 -5.667989e-02 3.793879e-01 5.521632e-02 -8.306483e-02 2.855354e-02 -8.807044e-01 3.416161e-02 -2.249802e-02 5.530283e-02 -8.308389e-02 -4.911807e-02 3.577252e-01 3.371373e-02 -2.175842e-02 3.410860e-02 -8.865994e-01 3.968074e-02 -8.827988e-01 3.758133e-02 -2.255105e-02 -5.239768e-02 -3.556650e-01 7.368650e-02 1.052723e-01 3.715883e-02 -2.289039e-02 4.079229e-02 -8.836431e-01 7.370140e-02 1.044354e-01 -4.006802e-02 -3.348429e-01
6.580000e+11 -5.363652e-02 3.828125e-01 5.462003e-02 -8.408271e-02 2.130373e-02 -8.792791e-01 3.405601e-02 -2.300023e-02 5.470662e-02 -8.410280e-02 -4.624229e-02 3.609316e-01 3.361335e-02 -2.225128e-02 2.682246e-02 -8.852702e-01 3.243941e-02 -8.814918e-01 3.748223e-02 -2.308092e-02 -5.550199e-02 -3.577580e-01 7.471609e-02 1.054732e-01 3.705603e-02 -2.341943e-02 3.354698e-02 -8.823552e-01 7.472405e-02 1.046299e-01 -4.297437e-02 -3.368761e-01
6.615000e+11 -5.054077e-02 3.862020e-01 5.400891e-02 -8.509366e-02 1.408623e-02 -8.777802e-01 3.394284e-02 -2.350130e-02 5.409555e-02 -8.511477e-02 -4.331737e-02 3.641049e-01 3.350555e-02 -2.274306e-02 1.956720e-02 -8.838670e-01 2.522865e-02 -8.801114e-01 3.737516e-02 -2.360974e-02 -5.863867e-02 -3.598151e-01 7.574961e-02 1.056623e-01 3.694527e-02 -2.394737e-02 2.633194e-02 -8.809938e-01 7.575054e-02 1.048126e-01 -4.591200e-02 -3.388757e-01
6.650000e+11 -4.739327e-02 3.895553e-01 5.338308e-02 -8.609740e-02 6.902034e-03 -8.762083e-01 3.382212e-02 -2.400110e-02 5.346976e-02 -8.611955e-02 -4.034390e-02 3.672441e-01 3.339034e-02 -2.323362e-02 1.234380e-02 -8.823904e-01 1.804943e-02 -8.786581e-01 3.726017e-02 -2.413735e-02 -6.180711e-02 -3.618355e-01 7.678687e-02 1.058393e-01 3.682660e-02 -2.447406e-02 1.914816e-02 -8.795595e-01 7.678066e-02 1.049833e-01 -4.888036e-02 -3.408411e-01
6.685000e+11 -4.419466e-02 3.928716e-01 5.274268e-02 -8.709369e-02 -2.479038e-04 -8.745640e-01 3.369390e-02 -2.449948e-02 5.282939e-02 -8.711687e-02 -3.732250e-02 3.703482e-01 3.326776e-02 -2.372283e-02 5.153230e-03 -8.808410e-01 1.090273e-02 -8.771325e-01 3.713728e-02 -2.466361e-02 -6.500668e-02 -3.638189e-01 7.782768e-02 1.060042e-01 3.670004e-02 -2.499936e-02 1.199659e-02 -8.780528e-01 7.781425e-02 1.051419e-01 -5.187885e-02 -3.427716e-01
6.720000e+11 -4.094562e-02 3.961499e-01 5.208786e-02 -8.808226e-02 -7.362626e-03 -8.728479e-01 3.355821e-02 -2.499632e-02 5.217457e-02 -8.810647e-02 -3.425381e-02 3.734165e-01 3.313784e-02 -2.421057e-02 -2.003544e-03 -8.792192e-01 3.789491e-03 -8.755350e-01 3.700654e-02 -2.518838e-02 -6.823675e-02 -3.657646e-01 7.887184e-02 1.061569e-01 3.656563e-02 -2.552313e-02 4.878197e-03 -8.764742e-01 7.885109e-02 1.052885e-01 -5.490688e-02 -3.446668e-01
6.755000e+11 -3.764684e-02 3.993894e-01 5.141875e-02 -8.906287e-02 -1.444119e-02 -8.710606e-01 3.341509e-02 -2.549148e-02 5.150546e-02 -8.908812e-02 -3.113848e-02 3.764481e-01 3.300063e-02 -2.469669e-02 -9.125569e-03 -8.775258e-01 -3.289329e-03 -8.738664e-01 3.686798e-02 -2.571152e-02 -7.149669e-02 -3.676720e-01 7.991916e-02 1.062973e-01 3.642342e-02 -2.604522e-02 -2.206069e-03 -8.748244e-01 7.989099e-02 1.054229e-01 -5.796385e-02 -3.465262e-01
6.790000e+11 -3.429903e-02 4.025890e-01 5.073552e-02 -9.003527e-02 -2.148267e-02 -8.692028e-01 3.326458e-02 -2.598482e-02 5.082220e-02 -9.006154e-02 -2.797718e-02 3.794422e-01 3.285617e-02 -2.518107e-02 -1.621190e-02 -8.757613e-01 -1.033280e-02 -8.721273e-01 3.672164e-02 -2.623289e-02 -7.478583e-02 -3.695406e-01 8.096944e-02 1.064255e-01 3.627344e-02 -2.656550e-02 -9.255275e-03 -8.731040e-01 8.093376e-02 1.055451e-01 -6.104914e-02 -3.483491e-01
6.825000e+11 -3.090292e-02 4.057481e-01 5.003832e-02 -9.099921e-02 -2.848614e-02 -8.672751e-01 3.310673e-02 -2.647621e-02 5.012496e-02 -9.102651e-02 -2.477059e-02 3.823978e-01 3.270450e-02 -2.566358e-02 -2.326162e-02 -8.739263e-01 -1.734000e-02 -8.703181e-01 3.656757e-02 -2.675234e-02 -7.810351e-02 -3.713699e-01 8.202248e-02 1.065413e-01 3.611574e-02 -2.708383e-02 -1.626849e-02 -8.713135e-01 8.197919e-02 1.056551e-01 -6.416213e-02 -3.501351e-01
6.860000e+11 -2.745926e-02 4.088656e-01 4.932730e-02 -9.195444e-02 -3.545070e-02 -8.652782e-01 3.294159e-02 -2.696552e-02 4.941389e-02 -9.198278e-02 -2.151943e-02 3.853143e-01 3.254566e-02 -2.614408e-02 -3.027379e-02 -8.720215e-01 -2.431001e-02 -8.684397e-01 3.640582e-02 -2.726976e-02 -8.144904e-02 -3.731594e-01 8.307808e-02 1.066447e-01 3.595038e-02 -2.760007e-02 -2.324482e-02 -8.694536e-01 8.302710e-02 1.057526e-01 -6.730217e-02 -3.518837e-01
6.895000e+11 -2.396881e-02 4.119407e-01 4.860264e-02 -9.290074e-02 -4.237545e-02 -8.632127e-01 3.276920e-02 -2.745263e-02 4.868916e-02 -9.293011e-02 -1.822441e-02 3.881909e-01 3.237971e-02 -2.662246e-02 -3.724752e-02 -8.700476e-01 -3.124195e-02 -8.664926e-01 3.623643e-02 -2.778499e-02 -8.482175e-02 -3.749086e-01 8.413603e-02 1.067356e-01 3.577739e-02 -2.811409e-02 -3.018334e-02 -8.675250e-01 8.407727e-02 1.058379e-01 -7.046862e-02 -3.535944e-01
6.930000e+11 -2.043235e-02 4.149727e-01 4.786451e-02 -9.383787e-02 -4.925952e-02 -8.610794e-01 3.258962e-02 -2.793741e-02 4.795094e-02 -9.386827e-02 -1.488626e-02 3.910267e-01 3.220670e-02 -2.709859e-02 -4.418192e-02 -8.680052e-01 -3.813492e-02 -8.644775e-01 3.605948e-02 -2.829790e-02 -8.822094e-02 -3.766170e-01 8.519613e-02 1.068140e-01 3.559685e-02 -2.862574e-02 -3.708318e-02 -8.655283e-01 8.512951e-02 1.059107e-01 -7.366083e-02 -3.552669e-01
6.965000e+11 -1.685068e-02 4.179608e-01 4.711308e-02 -9.476560e-02 -5.610204e-02 -8.588790e-01 3.240291e-02 -2.841972e-02 4.719941e-02 -9.479702e-02 -1.150575e-02 3.938211e-01 3.202668e-02 -2.757234e-02 -5.107611e-02 -8.658951e-01 -4.498805e-02 -8.623951e-01 3.587499e-02 -2.880836e-02 -9.164590e-02 -3.782842e-01 8.625819e-02 1.068798e-01 3.540879e-02 -2.913491e-02 -4.394346e-02 -8.634642e-01 8.618362e-02 1.059710e-01 -7.687812e-02 -3.569005e-01
7.000000e+11 -1.322461e-02 4.209041e-01 4.634854e-02 -9.568371e-02 -6.290217e-02 -8.566122e-01 3.220912e-02 -2.889945e-02 4.643475e-02 -9.571615e-02 -8.083635e-03 3.965732e-01 3.183970e-02 -2.804359e-02 -5.792921e-02 -8.637179e-01 -5.180048e-02 -8.602461e-01 3.568305e-02 -2.931624e-02 -9.509591e-02 -3.799096e-01 8.732198e-02 1.069330e-01 3.521329e-02 -2.964145e-02 -5.076332e-02 -8.613335e-01 8.723938e-02 1.060188e-01 -8.011982e-02 -3.584949e-01
